
    -----------------------------------------------------------------------
          Psi4: An Open-Source Ab Initio Electronic Structure Package
                               Psi4 1.9.1 release

                         Git: Rev {} zzzzzzz 


    D. G. A. Smith, L. A. Burns, A. C. Simmonett, R. M. Parrish,
    M. C. Schieber, R. Galvelis, P. Kraus, H. Kruse, R. Di Remigio,
    A. Alenaizan, A. M. James, S. Lehtola, J. P. Misiewicz, M. Scheurer,
    R. A. Shaw, J. B. Schriber, Y. Xie, Z. L. Glick, D. A. Sirianni,
    J. S. O'Brien, J. M. Waldrop, A. Kumar, E. G. Hohenstein,
    B. P. Pritchard, B. R. Brooks, H. F. Schaefer III, A. Yu. Sokolov,
    K. Patkowski, A. E. DePrince III, U. Bozkaya, R. A. King,
    F. A. Evangelista, J. M. Turney, T. D. Crawford, C. D. Sherrill,
    J. Chem. Phys. 152(18) 184108 (2020). https://doi.org/10.1063/5.0006002

                            Additional Code Authors
    E. T. Seidl, C. L. Janssen, E. F. Valeev, M. L. Leininger,
    J. F. Gonthier, R. M. Richard, H. R. McAlexander, M. Saitow, X. Wang,
    P. Verma, M. H. Lechner, A. Jiang, S. Behnle, A. G. Heide,
    M. F. Herbst, and D. L. Poole

             Previous Authors, Complete List of Code Contributors,
                       and Citations for Specific Modules
    https://github.com/psi4/psi4/blob/master/codemeta.json
    https://github.com/psi4/psi4/graphs/contributors
    http://psicode.org/psi4manual/master/introduction.html#citing-psifour

    -----------------------------------------------------------------------


    Psi4 started on: Thursday, 05 June 2025 05:32PM

    Process ID: 575798
    Host:       na14
    PSIDATADIR: /software-nas/eb2024/easybuild/software/rocky/8.9/amd/zen4/software/PSI4/1.9.1-foss-2023b/share/psi4
    Memory:     500.0 MiB
    Threads:    10
    
  ==> Input File <==

--------------------------------------------------------------------------
memory 60Gb

molecule{
0 2
H     0.00000000  0.00000000  -1.57015709
F     0.00000000  0.00000000  0.04490245
F     0.00000000  0.00000000  1.52525464
}

set reference rohf
set nat_orbs true
set qc_module detci
set dipmom true

energy("CISD/def2-QZVP")
--------------------------------------------------------------------------

  Memory set to  55.879 GiB by Python driver.

Scratch directory: /scratch/pobleyef/203620/
   => Libint2 <=

    Primary   basis highest AM E, G, H:  5, 4, 3
    Auxiliary basis highest AM E, G, H:  6, 5, 4
    Onebody   basis highest AM E, G, H:  6, 5, 4
    Solid Harmonics ordering:            Gaussian

*** tstart() called on na14
*** at Thu Jun  5 17:32:24 2025

   => Loading Basis Set <=

    Name: DEF2-QZVP
    Role: ORBITAL
    Keyword: BASIS
    atoms 1   entry H          line    15 file /software-nas/eb2024/easybuild/software/rocky/8.9/amd/zen4/software/PSI4/1.9.1-foss-2023b/share/psi4/basis/def2-qzvp.gbs 
    atoms 2-3 entry F          line   338 file /software-nas/eb2024/easybuild/software/rocky/8.9/amd/zen4/software/PSI4/1.9.1-foss-2023b/share/psi4/basis/def2-qzvp.gbs 


         ---------------------------------------------------------
                                   SCF
               by Justin Turney, Rob Parrish, Andy Simmonett
                          and Daniel G. A. Smith
                             ROHF Reference
                       10 Threads,  57220 MiB Core
         ---------------------------------------------------------

  ==> Geometry <==

    Molecular point group: c2v
    Full point group: C_inf_v

    Geometry (in Angstrom), charge = 0, multiplicity = 2:

       Center              X                  Y                   Z               Mass       
    ------------   -----------------  -----------------  -----------------  -----------------
         H            0.000000000000     0.000000000000    -2.294379645669     1.007825032230
         F            0.000000000000     0.000000000000    -0.679320105669    18.998403162730
         F            0.000000000000     0.000000000000     0.801032084331    18.998403162730

  Running in c2v symmetry.

  Rotational constants: A = ************  B =      0.64188  C =      0.64188 [cm^-1]
  Rotational constants: A = ************  B =  19242.97104  C =  19242.97104 [MHz]
  Nuclear repulsion =   33.442300092340837

  Charge       = 0
  Multiplicity = 2
  Electrons    = 19
  Nalpha       = 10
  Nbeta        = 9

  ==> Algorithm <==

  SCF Algorithm Type is PK.
  DIIS enabled.
  MOM disabled.
  Fractional occupation disabled.
  Guess Type is SAD.
  Energy threshold   = 1.00e-08
  Density threshold  = 1.00e-08
  Integral threshold = 1.00e-12

  ==> Primary Basis <==

  Basis Set: DEF2-QZVP
    Blend: DEF2-QZVP
    Number of shells: 44
    Number of basis functions: 144
    Number of Cartesian functions: 179
    Spherical Harmonics?: true
    Max angular momentum: 4

  ==> Integral Setup <==

  Using in-core PK algorithm.
   Calculation information:
      Number of atoms:                   3
      Number of AO shells:              44
      Number of primitives:             71
      Number of atomic orbitals:       179
      Number of basis functions:       144

      Integral cutoff                 1.00e-12
      Number of threads:                10

  Performing in-core PK
  Using 109004040 doubles for integral storage.
  We computed 647912 shell quartets total.
  Whereas there are 490545 unique shell quartets.
    32.08 percent of shell quartets recomputed by reordering.

  ==> DiskJK: Disk-Based J/K Matrices <==

    J tasked:                  Yes
    K tasked:                  Yes
    wK tasked:                  No
    Memory [MiB]:            42915
    Schwarz Cutoff:          1E-12

    OpenMP threads:             10

  Minimum eigenvalue in the overlap matrix is 3.2019675036E-03.
  Reciprocal condition number of the overlap matrix is 6.8925964383E-04.
    Using symmetric orthogonalization.

  ==> Pre-Iterations <==

  SCF Guess: Superposition of Atomic Densities via on-the-fly atomic UHF (no occupation information).

   -------------------------
    Irrep   Nso     Nmo    
   -------------------------
     A1        61      61 
     A2        17      17 
     B1        33      33 
     B2        33      33 
   -------------------------
    Total     144     144
   -------------------------

  ==> Iterations <==

                        Total Energy        Delta E     RMS |[F,P]|

   @ROHF iter SAD:  -198.49265055152250   -1.98493e+02   0.00000e+00 
   @ROHF iter   1:  -199.11795848042604   -6.25308e-01   3.30669e-03 DIIS
   @ROHF iter   2:  -199.11197762361050    5.98086e-03   5.42102e-03 DIIS
   @ROHF iter   3:  -199.21926068958217   -1.07283e-01   1.46440e-03 DIIS
   @ROHF iter   4:  -199.23155394217571   -1.22933e-02   8.44040e-04 DIIS
   @ROHF iter   5:  -199.23970280840081   -8.14887e-03   5.44273e-04 DIIS
   @ROHF iter   6:  -199.24459637637921   -4.89357e-03   3.08407e-04 DIIS
   @ROHF iter   7:  -199.24545237111278   -8.55995e-04   7.72164e-05 DIIS
   @ROHF iter   8:  -199.24550334900678   -5.09779e-05   4.93728e-05 DIIS
   @ROHF iter   9:  -199.24555662896498   -5.32800e-05   6.99608e-06 DIIS
   @ROHF iter  10:  -199.24555708439379   -4.55429e-07   2.91605e-06 DIIS
   @ROHF iter  11:  -199.24555723176204   -1.47368e-07   1.11142e-06 DIIS
   @ROHF iter  12:  -199.24555725789898   -2.61369e-08   2.48129e-07 DIIS
   @ROHF iter  13:  -199.24555725843075   -5.31770e-10   1.79663e-08 DIIS
   @ROHF iter  14:  -199.24555725843325   -2.50111e-12   7.04407e-09 DIIS
  Energy and wave function converged.


  ==> Post-Iterations <==

    Orbital Energies [Eh]
    ---------------------

    Doubly Occupied:                                                      

       1A1   -26.434685     2A1   -26.413318     3A1    -1.730310  
       4A1    -1.513379     1B1    -0.793562     1B2    -0.793562  
       5A1    -0.737893     2B1    -0.672771     2B2    -0.672771  

    Singly Occupied:                                                      

       6A1    -0.193576  

    Virtual:                                                              

       7A1     0.063107     8A1     0.237413     9A1     0.393757  
       3B1     0.408633     3B2     0.408633     4B2     0.478163  
       4B1     0.478163    10A1     0.621416    11A1     0.668080  
       5B1     0.681733     5B2     0.681733    12A1     1.010158  
      13A1     1.181288    14A1     1.395299     6B2     1.410353  
       6B1     1.410353    15A1     1.447540     1A2     1.447540  
      16A1     1.701271     2A2     1.701271     7B1     1.776941  
       7B2     1.776941    17A1     1.812903     8B2     1.895448  
       8B1     1.895448    18A1     1.895846     3A2     2.095308  
      19A1     2.095308    20A1     2.164118     9B1     2.165009  
       9B2     2.165009    10B2     2.432130    10B1     2.432130  
      11B1     2.581709    11B2     2.581709    21A1     2.645874  
      22A1     3.071699    23A1     3.194234    24A1     3.879388  
       4A2     4.168046    25A1     4.168046    12B1     4.210181  
      12B2     4.210181    26A1     4.301821    13B2     4.436142  
      13B1     4.436142    27A1     4.542119    14B2     4.554328  
      14B1     4.554328     5A2     4.831405    28A1     4.831405  
      15B2     5.258403    15B1     5.258403     6A2     5.276974  
      29A1     5.276974    30A1     5.401120    31A1     5.444347  
       7A2     5.444347    16B2     5.474062    16B1     5.474062  
      32A1     5.778795    17B2     6.050029    17B1     6.050029  
      18B2     6.069930    18B1     6.069930    33A1     6.089371  
       8A2     6.089371    34A1     6.328706    19B1     6.433251  
      19B2     6.433251    35A1     6.596220    20B1     6.670690  
      20B2     6.670690    21B1     6.759459    21B2     6.759459  
      36A1     6.817230    37A1     7.328780    38A1     7.416365  
      22B2     7.828615    22B1     7.828615    39A1     8.131815  
       9A2     8.131815    23B1     8.340889    23B2     8.340889  
      40A1     8.466827    41A1     9.037909    24B1    11.526438  
      24B2    11.526438    10A2    11.702980    42A1    11.702980  
      43A1    11.723705    25B1    11.852587    25B2    11.852587  
      44A1    11.913795    11A2    11.913795    26B1    11.916116  
      26B2    11.916116    45A1    11.931652    12A2    11.931652  
      13A2    12.051981    46A1    12.051981    27B1    12.529168  
      27B2    12.529168    47A1    12.849564    48A1    14.997605  
      14A2    14.997605    28B1    15.134385    28B2    15.134385  
      29B2    15.145702    29B1    15.145702    30B1    15.197742  
      30B2    15.197742    49A1    15.295383    50A1    15.359678  
      15A2    15.359678    51A1    15.394084    52A1    15.939054  
      31B1    16.046036    31B2    16.046036    16A2    16.345091  
      53A1    16.345091    17A2    16.442232    54A1    16.442232  
      32B2    16.466709    32B1    16.466709    33B2    16.670664  
      33B1    16.670664    55A1    16.926367    56A1    17.247874  
      57A1    17.565232    58A1    54.903225    59A1    55.703519  
      60A1   287.629841    61A1   288.607497  

    Final Occupation by Irrep:
             A1    A2    B1    B2 
    DOCC [     5,    0,    2,    2 ]
    SOCC [     1,    0,    0,    0 ]
    NA   [     6,    0,    2,    2 ]
    NB   [     5,    0,    2,    2 ]

  @ROHF Final Energy:  -199.24555725843325

   => Energetics <=

    Nuclear Repulsion Energy =             33.4423000923408367
    One-Electron Energy =                -345.3680354528793259
    Two-Electron Energy =                 112.6801781021052449
    Total Energy =                       -199.2455572584332799

Computation Completed


Properties will be evaluated at   0.000000,   0.000000,   0.000000 [a0]

Properties computed using the SCF density matrix


 Multipole Moments:

 ------------------------------------------------------------------------------------
     Multipole            Electronic (a.u.)      Nuclear  (a.u.)        Total (a.u.)
 ------------------------------------------------------------------------------------

 L = 1.  Multiply by 2.5417464519 to convert [e a0] to [Debye]
 Dipole X            :          0.0000000            0.0000000            0.0000000
 Dipole Y            :          0.0000000            0.0000000            0.0000000
 Dipole Z            :          2.1006547           -2.2657284           -0.1650738
 Magnitude           :                                                    0.1650738

 ------------------------------------------------------------------------------------

*** tstop() called on na14 at Thu Jun  5 17:32:29 2025
Module time:
	user time   =      13.07 seconds =       0.22 minutes
	system time =       0.23 seconds =       0.00 minutes
	total time  =          5 seconds =       0.08 minutes
Total time:
	user time   =      13.07 seconds =       0.22 minutes
	system time =       0.23 seconds =       0.00 minutes
	total time  =          5 seconds =       0.08 minutes
 MINTS: Wrapper to libmints.
   by Justin Turney

   Calculation information:
      Number of threads:                10
      Number of atoms:                   3
      Number of AO shells:              44
      Number of SO shells:              44
      Number of primitives:             71
      Number of atomic orbitals:       179
      Number of basis functions:       144

      Number of irreps:                  4
      Integral cutoff                 1.00e-12
      Number of functions per irrep: [  61   17   33   33 ]

 OEINTS: Overlap, kinetic, potential, dipole, and quadrupole integrals
         stored in file 35.

      Computing two-electron integrals...done
      Computed 8713380 non-zero two-electron integrals.
        Stored in file 33.


         ---------------------------------------------------------
                          Configuration Interaction
                            (a 'D E T C I' module)

                 C. David Sherrill, Daniel G. A. Smith, and
                              Matt L. Leininger
         ---------------------------------------------------------

Warning: iopen=0,opentype!=closed. Making iopen=1

   ==> Parameters <==

    EX LEVEL       =        2      H0 BLOCKSIZE  =     1000
    VAL EX LEVEL   =        0      H0 GUESS SIZE =     1000
    H0COUPLINGSIZE =        0      H0 COUPLING   =       NO
    MAXITER        =       24      NUM PRINT     =       20
    NUM ROOTS      =        1      ICORE         =        1
    PRINT LVL      =        1      FCI           =       NO
    R CONV         = 1.00e-04      MIXED         =      YES
    E CONV         = 1.00e-06      MIXED4        =      YES
    R4S            =       NO      REPL OTF      =       NO
    DIAG METHOD    =      SEM      FOLLOW ROOT   =        0
    PRECONDITIONER = DAVIDSON      UPDATE        = DAVIDSON
    S              =   0.5000      Ms0           =       NO
    GUESS VECTOR   =  H0BLOCK      OPENTYPE      = HIGHSPIN
    COLLAPSE SIZE  =        1      HD AVG        = EVANGELISTI
    MAX NUM VECS   =       25      REF SYM       =     AUTO
    IOPEN        =      YES

    EX ALLOW       =  1  1 
    STATE AVERAGE  =  0(1.00) 

   ==> CI Orbital and Space information <==

    RAS1 LVL      =        9      A RAS3 MAX    =        2
    RAS1 MIN      =       17      B RAS3 MAX    =        2
    A RAS1 LVL    =        9      RAS4 LVL      =      144
    A RAS1 MIN    =        8      A RAS4 MAX    =        0
    A RAS1 MAX    =       10      B RAS4 MAX    =        0
    B RAS1 LVL    =        9      RAS4 MAX      =        0
    B RAS1 MIN    =        7      A RAS34 MAX   =        2
    B RAS1 MAX    =        9      B RAS34 MAX   =        2
    RAS3 LVL      =       10      RAS34 MAX     =        2
    RAS3 MAX      =        2
   ------------------------------------------------------
               Space    Total    A1    A2    B1    B2
   ------------------------------------------------------
                 Nso      144    61    17    33    33
                 Nmo      144    61    17    33    33
               Ndocc        9     5     0     2     2
               Nsocc        1     1     0     0     0
   ------------------------------------------------------
                       CI Spaces
   ------------------------------------------------------
        Dropped DOCC        0     0     0     0     0
                RAS1       10     6     0     2     2
                RAS2        0     0     0     0     0
                RAS3      134    55    17    31    31
                RAS4        0     0     0     0     0
      Active (total)      144    61    17    33    33
        Dropped UOCC        0     0     0     0     0
   ------------------------------------------------------

   ==> Setting up CI strings <==

    There are 402336 alpha and 1075360 beta strings
    The CI space requires 3380055 (3.38E+06) determinants and 13 blocks

   ==> Transforming CI integrals <==

	Presorting SO-basis two-electron integrals.
	Sorting File: SO Ints (nn|nn) nbuckets = 1
	Constructing frozen core operators
	Starting first half-transformation.
	Sorting half-transformed integrals.
	First half integral transformation complete.
	Starting second half-transformation.
	Two-electron integral transformation complete.

   ==> Starting CI iterations <==

    H0 Block Eigenvalue = -199.34584937

    Simultaneous Expansion Method (Block Davidson Method)
    Using 1 initial trial vectors

     Iter   Root       Total Energy       Delta E      C RMS

   @CI  0:     0   -199.345849372964   -2.3279E+02   3.1902E+00  
   @CI  1:     0   -199.806006109553   -4.6016E-01   3.2160E-01  
   @CI  2:     0   -199.828444486064   -2.2438E-02   1.0872E-01  
   @CI  3:     0   -199.831227150764   -2.7827E-03   4.6570E-02  
   @CI  4:     0   -199.831623327032   -3.9618E-04   1.8536E-02  
   @CI  5:     0   -199.831720649218   -9.7322E-05   1.9833E-02  
   @CI  6:     0   -199.831759669003   -3.9020E-05   6.5832E-03  
   @CI  7:     0   -199.831769140230   -9.4712E-06   3.5309E-03  
   @CI  8:     0   -199.831770703387   -1.5632E-06   1.3955E-03  
   @CI  9:     0   -199.831770932631   -2.2924E-07   4.4406E-04  
   @CI 10:     0   -199.831770971008   -3.8376E-08   2.0467E-04  
   @CI 11:     0   -199.831770976501   -5.4930E-09   6.8634E-05 c

   Computing CI Natural Orbitals

   ==> Energetics <==

    SCF energy =         -199.245557258433280
    Total CI energy =    -199.831770976500536

   ==> CISD root 0 information <==

    CISD Root 0 energy =  -199.831770976500536

   Active Space Natural occupation numbers:

        A1   1.999543        A1   1.999542        A1   1.988805
        A1   1.985438        B1   1.982282        B2   1.982282
        B2   1.978142        B1   1.978142        A1   1.928714
        A1   0.999340        A1   0.067479        B1   0.012202
        B2   0.012202        B1   0.008372        B2   0.008372
        A1   0.007023        A1   0.005410        B1   0.004452
        B2   0.004452        A1   0.004351        A1   0.003970
        A1   0.003846        A2   0.003846        A1   0.003644
        A2   0.003644        B1   0.002918        B2   0.002918
        A1   0.002654        A1   0.000807        A1   0.000721
        B1   0.000707        B2   0.000707        B1   0.000609
        B2   0.000609        B1   0.000508        B2   0.000508
        A1   0.000476        A2   0.000476        A1   0.000439
        A1   0.000390        B2   0.000389        B1   0.000389
        B1   0.000372        B2   0.000372        A1   0.000370
        A2   0.000370        B1   0.000366        B2   0.000366
        A2   0.000355        A1   0.000355        A1   0.000337
        A1   0.000329        A2   0.000329        A1   0.000306
        B1   0.000293        B2   0.000293        A1   0.000271
        A1   0.000195        A1   0.000183        B1   0.000178
        B2   0.000178        B1   0.000137        B2   0.000137
        A1   0.000105        A1   0.000089        B1   0.000086
        B2   0.000086        B1   0.000062        B2   0.000062
        A1   0.000056        A1   0.000054        A2   0.000054
        A1   0.000054        A2   0.000054        A1   0.000051
        A2   0.000051        A1   0.000050        B2   0.000046
        B1   0.000046        A1   0.000045        B1   0.000044
        B2   0.000044        B2   0.000043        B1   0.000043
        B1   0.000040        B2   0.000040        A1   0.000039
        B1   0.000039        B2   0.000039        A1   0.000038
        A2   0.000038        A2   0.000036        A1   0.000036
        A1   0.000034        A2   0.000034        A1   0.000033
        A2   0.000033        B1   0.000032        B2   0.000032
        B1   0.000030        B2   0.000030        A1   0.000028
        A1   0.000027        A1   0.000027        A2   0.000027
        B2   0.000027        B1   0.000027        B2   0.000024
        B1   0.000024        A1   0.000017        A1   0.000015
        A1   0.000015        B1   0.000014        B2   0.000014
        A1   0.000011        A1   0.000009        A2   0.000006
        A1   0.000006        B1   0.000006        B2   0.000006
        A1   0.000005        A1   0.000004        B1   0.000003
        B2   0.000003        A1   0.000002        A1   0.000002
        A1   0.000001        A1   0.000001        A1   0.000000
        A1   0.000000        B2   0.000000        B1   0.000000
        B1   0.000000        B2   0.000000        A2   0.000000
        A1   0.000000        A1   0.000000        A2   0.000000
        A1   0.000000        B2   0.000000        B1   0.000000
        B1   0.000000        B2   0.000000        A1   0.000000

   The 20 most important determinants:

    *   1    0.951095  (    0,    0)  1A1X 2A1X 3A1X 4A1X 5A1X 6A1A 1B1X 2B1X 1B2X 2B2X 
    *   2    0.111413  (    2,    8)  1A1X 2A1X 3A1X 4A1X 6A1A 1B1X 2B1X 1B2X 2B2X 7A1X 
    *   3   -0.040742  (    1,    1)  1A1X 2A1X 3A1X 4A1X 5A1A 6A1B 1B1X 2B1X 1B2X 2B2X 7A1A 
    *   4   -0.039314  (    2,    1)  1A1X 2A1X 3A1X 4A1X 6A1X 1B1X 2B1X 1B2X 2B2X 7A1A 
    *   5   -0.033541  (   14,    8)  1A1X 2A1X 3A1X 4A1X 6A1A 1B1X 2B1X 1B2X 2B2X 7A1B 9A1A 
    *   6   -0.033376  (    2,   42)  1A1X 2A1X 3A1X 4A1X 6A1A 1B1X 2B1X 1B2X 2B2X 7A1A 9A1B 
    *   7    0.031304  (    2,   25)  1A1X 2A1X 3A1X 4A1X 6A1A 1B1X 2B1X 1B2X 2B2X 7A1A 8A1B 
    *   8    0.030551  (    8,    8)  1A1X 2A1X 3A1X 4A1X 6A1A 1B1X 2B1X 1B2X 2B2X 7A1B 8A1A 
    *   9   -0.023512  (    0,    8)  1A1X 2A1X 3A1X 4A1X 5A1A 6A1A 1B1X 2B1X 1B2X 2B2X 7A1B 
    *  10   -0.022630  (    1,    0)  1A1X 2A1X 3A1X 4A1X 5A1X 1B1X 2B1X 1B2X 2B2X 7A1A 
    *  11    0.022586  (    1,    8)  1A1X 2A1X 3A1X 4A1X 5A1A 1B1X 2B1X 1B2X 2B2X 7A1X 
    *  12   -0.021109  (    7,    1)  1A1X 2A1X 3A1X 4A1X 5A1A 6A1B 1B1X 2B1X 1B2X 2B2X 8A1A 
    *  13   -0.019069  (  393,    8)  1A1X 2A1X 3A1X 4A1X 5A1A 6A1A 1B1X 2B1X 1B2X 2B2B 7A1B 3B2A 
    *  14   -0.019069  (  331,    8)  1A1X 2A1X 3A1X 4A1X 5A1A 6A1A 1B1X 2B1B 1B2X 2B2X 7A1B 3B1A 
    *  15    0.018529  (    0,    1)  1A1X 2A1X 3A1X 4A1X 5A1A 6A1X 1B1X 2B1X 1B2X 2B2X 
    *  16    0.018395  (    2, 1009)  1A1X 2A1X 3A1X 4A1X 5A1B 6A1A 1B1X 2B1A 1B2X 2B2X 7A1A 3B1B 
    *  17    0.018395  (    2, 1381)  1A1X 2A1X 3A1X 4A1X 5A1B 6A1A 1B1X 2B1X 1B2X 2B2A 7A1A 3B2B 
    *  18    0.018241  (    3,    9)  1A1X 2A1X 3A1X 5A1X 6A1A 1B1X 2B1X 1B2X 2B2X 7A1X 
    *  19    0.018203  (   80,    0)  1A1X 2A1X 3A1X 4A1X 5A1B 6A1A 1B1X 2B1X 1B2X 2B2X 20A1A 
    *  20   -0.017230  (    2,    0)  1A1X 2A1X 3A1X 4A1X 5A1B 6A1A 1B1X 2B1X 1B2X 2B2X 7A1A 

		 "A good bug is a dead bug" 

			 - Starship Troopers

		 "I didn't write FORTRAN.  That's the problem."

			 - Edward Valeev


Properties will be evaluated at   0.000000,   0.000000,   0.000000 [a0]

Properties computed using the CISD density matrix


 Multipole Moments:

 ------------------------------------------------------------------------------------
     Multipole            Electronic (a.u.)      Nuclear  (a.u.)        Total (a.u.)
 ------------------------------------------------------------------------------------

 L = 1.  Multiply by 2.5417464519 to convert [e a0] to [Debye]
 Dipole X            :          0.0000000            0.0000000            0.0000000
 Dipole Y            :          0.0000000            0.0000000            0.0000000
 Dipole Z            :          2.0873690           -2.2657284           -0.1783594
 Magnitude           :                                                    0.1783594

 ------------------------------------------------------------------------------------

    Psi4 stopped on: Thursday, 05 June 2025 07:09PM
    Psi4 wall time for execution: 1:36:50.09

*** Psi4 exiting successfully. Buy a developer a beer!
