
    -----------------------------------------------------------------------
          Psi4: An Open-Source Ab Initio Electronic Structure Package
                               Psi4 1.9.1 release

                         Git: Rev {} zzzzzzz 


    D. G. A. Smith, L. A. Burns, A. C. Simmonett, R. M. Parrish,
    M. C. Schieber, R. Galvelis, P. Kraus, H. Kruse, R. Di Remigio,
    A. Alenaizan, A. M. James, S. Lehtola, J. P. Misiewicz, M. Scheurer,
    R. A. Shaw, J. B. Schriber, Y. Xie, Z. L. Glick, D. A. Sirianni,
    J. S. O'Brien, J. M. Waldrop, A. Kumar, E. G. Hohenstein,
    B. P. Pritchard, B. R. Brooks, H. F. Schaefer III, A. Yu. Sokolov,
    K. Patkowski, A. E. DePrince III, U. Bozkaya, R. A. King,
    F. A. Evangelista, J. M. Turney, T. D. Crawford, C. D. Sherrill,
    J. Chem. Phys. 152(18) 184108 (2020). https://doi.org/10.1063/5.0006002

                            Additional Code Authors
    E. T. Seidl, C. L. Janssen, E. F. Valeev, M. L. Leininger,
    J. F. Gonthier, R. M. Richard, H. R. McAlexander, M. Saitow, X. Wang,
    P. Verma, M. H. Lechner, A. Jiang, S. Behnle, A. G. Heide,
    M. F. Herbst, and D. L. Poole

             Previous Authors, Complete List of Code Contributors,
                       and Citations for Specific Modules
    https://github.com/psi4/psi4/blob/master/codemeta.json
    https://github.com/psi4/psi4/graphs/contributors
    http://psicode.org/psi4manual/master/introduction.html#citing-psifour

    -----------------------------------------------------------------------


    Psi4 started on: Thursday, 05 June 2025 04:06PM

    Process ID: 4018112
    Host:       na07
    PSIDATADIR: /software-nas/eb2024/easybuild/software/rocky/8.9/amd/zen4/software/PSI4/1.9.1-foss-2023b/share/psi4
    Memory:     500.0 MiB
    Threads:    40
    
  ==> Input File <==

--------------------------------------------------------------------------
memory 60Gb

molecule{
0 3
C     0.000000  0.000000  0.000000
}

set reference rohf
set nat_orbs true
set qc_module detci
set dipmom true

energy("CI5/def2-QZVP")
--------------------------------------------------------------------------

  Memory set to  55.879 GiB by Python driver.

Scratch directory: /scratch/pobleyef/203555/
   => Libint2 <=

    Primary   basis highest AM E, G, H:  5, 4, 3
    Auxiliary basis highest AM E, G, H:  6, 5, 4
    Onebody   basis highest AM E, G, H:  6, 5, 4
    Solid Harmonics ordering:            Gaussian

*** tstart() called on na07
*** at Thu Jun  5 16:06:31 2025

   => Loading Basis Set <=

    Name: DEF2-QZVP
    Role: ORBITAL
    Keyword: BASIS
    atoms 1 entry C          line   194 file /software-nas/eb2024/easybuild/software/rocky/8.9/amd/zen4/software/PSI4/1.9.1-foss-2023b/share/psi4/basis/def2-qzvp.gbs 


         ---------------------------------------------------------
                                   SCF
               by Justin Turney, Rob Parrish, Andy Simmonett
                          and Daniel G. A. Smith
                             ROHF Reference
                       40 Threads,  57220 MiB Core
         ---------------------------------------------------------

  ==> Geometry <==

    Molecular point group: d2h
    Geometry (in Angstrom), charge = 0, multiplicity = 3:

       Center              X                  Y                   Z               Mass       
    ------------   -----------------  -----------------  -----------------  -----------------
         C            0.000000000000     0.000000000000     0.000000000000    12.000000000000

  Running in d2h symmetry.

  Rotational constants: A = ************  B = ************  C = ************ [cm^-1]
  Rotational constants: A = ************  B = ************  C = ************ [MHz]
  Nuclear repulsion =    0.000000000000000

  Charge       = 0
  Multiplicity = 3
  Electrons    = 6
  Nalpha       = 4
  Nbeta        = 2

  ==> Algorithm <==

  SCF Algorithm Type is PK.
  DIIS enabled.
  MOM disabled.
  Fractional occupation disabled.
  Guess Type is CORE.
  Energy threshold   = 1.00e-08
  Density threshold  = 1.00e-08
  Integral threshold = 1.00e-12

  ==> Primary Basis <==

  Basis Set: DEF2-QZVP
    Blend: DEF2-QZVP
    Number of shells: 17
    Number of basis functions: 57
    Number of Cartesian functions: 72
    Spherical Harmonics?: true
    Max angular momentum: 4

  ==> Integral Setup <==

  Using in-core PK algorithm.
   Calculation information:
      Number of atoms:                   1
      Number of AO shells:              17
      Number of primitives:             29
      Number of atomic orbitals:        72
      Number of basis functions:        57

      Integral cutoff                 1.00e-12
      Number of threads:                40

  Performing in-core PK
  Using 2734062 doubles for integral storage.
  We computed 79679 shell quartets total.
  Whereas there are 11781 unique shell quartets.
   576.33 percent of shell quartets recomputed by reordering.

  ==> DiskJK: Disk-Based J/K Matrices <==

    J tasked:                  Yes
    K tasked:                  Yes
    wK tasked:                  No
    Memory [MiB]:            42915
    Schwarz Cutoff:          1E-12

    OpenMP threads:             40

  Minimum eigenvalue in the overlap matrix is 6.1278357071E-03.
  Reciprocal condition number of the overlap matrix is 1.5428707582E-03.
    Using symmetric orthogonalization.

  ==> Pre-Iterations <==

  SCF Guess: Core (One-Electron) Hamiltonian.

   -------------------------------------------------------
    Irrep   Nso     Nmo     Nalpha   Nbeta   Ndocc  Nsocc
   -------------------------------------------------------
     Ag        16      16       2       2       2       0
     B1g        5       5       0       0       0       0
     B2g        5       5       0       0       0       0
     B3g        5       5       0       0       0       0
     Au         2       2       0       0       0       0
     B1u        8       8       1       0       0       1
     B2u        8       8       1       0       0       1
     B3u        8       8       0       0       0       0
   -------------------------------------------------------
    Total      57      57       4       2       2       2
   -------------------------------------------------------

  ==> Iterations <==

                        Total Energy        Delta E     RMS |[F,P]|

    Occupation by irrep:
             Ag   B1g   B2g   B3g    Au   B1u   B2u   B3u 
    DOCC [     2,    0,    0,    0,    0,    0,    0,    0 ]
    SOCC [     0,    0,    0,    0,    0,    1,    0,    1 ]
    NA   [     2,    0,    0,    0,    0,    1,    0,    1 ]
    NB   [     2,    0,    0,    0,    0,    0,    0,    0 ]

   @ROHF iter   1:   -34.68133734245842   -3.46813e+01   1.17155e-01 DIIS
   @ROHF iter   2:   -36.74939257703941   -2.06806e+00   2.46465e-02 DIIS
   @ROHF iter   3:   -37.64466003253300   -8.95267e-01   1.05241e-02 DIIS
   @ROHF iter   4:   -37.68599645737550   -4.13364e-02   2.20481e-03 DIIS
   @ROHF iter   5:   -37.68855561196649   -2.55915e-03   2.26970e-04 DIIS
   @ROHF iter   6:   -37.68860455558890   -4.89436e-05   6.59518e-05 DIIS
   @ROHF iter   7:   -37.68860903988002   -4.48429e-06   1.26919e-05 DIIS
   @ROHF iter   8:   -37.68860914525644   -1.05376e-07   7.69888e-07 DIIS
   @ROHF iter   9:   -37.68860914579341   -5.36971e-10   8.25684e-08 DIIS
   @ROHF iter  10:   -37.68860914579817   -4.76064e-12   1.33867e-08 DIIS
   @ROHF iter  11:   -37.68860914579825   -8.52651e-14   1.96671e-09 DIIS
  Energy and wave function converged.


  ==> Post-Iterations <==

    Orbital Energies [Eh]
    ---------------------

    Doubly Occupied:                                                      

       1Ag   -11.325501     2Ag    -0.705643  

    Singly Occupied:                                                      

       1B1u   -0.130019     1B3u   -0.130019  

    Virtual:                                                              

       1B2u    0.038798     2B3u    0.229888     2B1u    0.229888  
       2B2u    0.263656     3Ag     0.307361     4Ag     0.633886  
       1B3g    0.636560     1B1g    0.636560     1B2g    0.644988  
       5Ag     0.644988     3B3u    0.957025     3B1u    0.957025  
       3B2u    0.964016     6Ag     1.718125     4B2u    1.897501  
       4B3u    1.901225     4B1u    1.901225     1Au     1.912684  
       5B2u    1.912684     5B3u    1.931755     5B1u    1.931755  
       7Ag     2.096502     2B1g    2.102361     2B3g    2.102361  
       8Ag     2.120030     2B2g    2.120030     6B2u    3.125533  
       6B3u    3.142253     6B1u    3.142253     9Ag     5.087928  
       3B3g    5.091366     3B1g    5.091366     3B2g    5.101707  
      10Ag     5.101707     4B3g    5.119026     4B1g    5.119026  
      11Ag     5.143449     4B2g    5.143449     7B2u    6.226132  
       7B1u    6.231897     7B3u    6.231897     8B2u    6.249325  
       2Au     6.249325    12Ag     6.276914     8B1u    6.278458  
       8B3u    6.278458     5B3g    6.286573     5B1g    6.286573  
      13Ag     6.315546     5B2g    6.315546    14Ag     7.224975  
      15Ag    27.518671    16Ag   147.859152  

    Final Occupation by Irrep:
             Ag   B1g   B2g   B3g    Au   B1u   B2u   B3u 
    DOCC [     2,    0,    0,    0,    0,    0,    0,    0 ]
    SOCC [     0,    0,    0,    0,    0,    1,    0,    1 ]
    NA   [     2,    0,    0,    0,    0,    1,    0,    1 ]
    NB   [     2,    0,    0,    0,    0,    0,    0,    0 ]

  @ROHF Final Energy:   -37.68860914579825

   => Energetics <=

    Nuclear Repulsion Energy =              0.0000000000000000
    One-Electron Energy =                 -50.4481834748189257
    Two-Electron Energy =                  12.7595743290206691
    Total Energy =                        -37.6886091457982531

Computation Completed


Properties will be evaluated at   0.000000,   0.000000,   0.000000 [a0]

Properties computed using the SCF density matrix


 Multipole Moments:

 ------------------------------------------------------------------------------------
     Multipole            Electronic (a.u.)      Nuclear  (a.u.)        Total (a.u.)
 ------------------------------------------------------------------------------------

 L = 1.  Multiply by 2.5417464519 to convert [e a0] to [Debye]
 Dipole X            :          0.0000000            0.0000000            0.0000000
 Dipole Y            :          0.0000000            0.0000000            0.0000000
 Dipole Z            :          0.0000000            0.0000000            0.0000000
 Magnitude           :                                                    0.0000000

 ------------------------------------------------------------------------------------

*** tstop() called on na07 at Thu Jun  5 16:06:33 2025
Module time:
	user time   =      50.02 seconds =       0.83 minutes
	system time =       0.57 seconds =       0.01 minutes
	total time  =          2 seconds =       0.03 minutes
Total time:
	user time   =      50.02 seconds =       0.83 minutes
	system time =       0.57 seconds =       0.01 minutes
	total time  =          2 seconds =       0.03 minutes
 MINTS: Wrapper to libmints.
   by Justin Turney

   Calculation information:
      Number of threads:                40
      Number of atoms:                   1
      Number of AO shells:              17
      Number of SO shells:              17
      Number of primitives:             29
      Number of atomic orbitals:        72
      Number of basis functions:        57

      Number of irreps:                  8
      Integral cutoff                 1.00e-12
      Number of functions per irrep: [  16    5    5    5    2    8    8    8 ]

 OEINTS: Overlap, kinetic, potential, dipole, and quadrupole integrals
         stored in file 35.

      Computing two-electron integrals...done
      Computed 128567 non-zero two-electron integrals.
        Stored in file 33.


         ---------------------------------------------------------
                          Configuration Interaction
                            (a 'D E T C I' module)

                 C. David Sherrill, Daniel G. A. Smith, and
                              Matt L. Leininger
         ---------------------------------------------------------

Warning: iopen=0,opentype!=closed. Making iopen=1

   ==> Parameters <==

    EX LEVEL       =        5      H0 BLOCKSIZE  =     1000
    VAL EX LEVEL   =        0      H0 GUESS SIZE =     1000
    H0COUPLINGSIZE =        0      H0 COUPLING   =       NO
    MAXITER        =       24      NUM PRINT     =       20
    NUM ROOTS      =        1      ICORE         =        1
    PRINT LVL      =        1      FCI           =       NO
    R CONV         = 1.00e-04      MIXED         =      YES
    E CONV         = 1.00e-06      MIXED4        =      YES
    R4S            =       NO      REPL OTF      =       NO
    DIAG METHOD    =      SEM      FOLLOW ROOT   =        0
    PRECONDITIONER = DAVIDSON      UPDATE        = DAVIDSON
    S              =   1.0000      Ms0           =       NO
    GUESS VECTOR   =  H0BLOCK      OPENTYPE      = HIGHSPIN
    COLLAPSE SIZE  =        1      HD AVG        = EVANGELISTI
    MAX NUM VECS   =       25      REF SYM       =     AUTO
    IOPEN        =      YES

    EX ALLOW       =  1  1  1  1  1 
    STATE AVERAGE  =  0(1.00) 

   ==> CI Orbital and Space information <==

    RAS1 LVL      =        3      A RAS3 MAX    =        4
    RAS1 MIN      =        1      B RAS3 MAX    =        2
    A RAS1 LVL    =        3      RAS4 LVL      =       57
    A RAS1 MIN    =        0      A RAS4 MAX    =        0
    A RAS1 MAX    =        4      B RAS4 MAX    =        0
    B RAS1 LVL    =        3      RAS4 MAX      =        0
    B RAS1 MIN    =        0      A RAS34 MAX   =        4
    B RAS1 MAX    =        2      B RAS34 MAX   =        2
    RAS3 LVL      =        4      RAS34 MAX     =        5
    RAS3 MAX      =        5
   ------------------------------------------------------------------------------
               Space    Total    Ag   B1g   B2g   B3g    Au   B1u   B2u   B3u
   ------------------------------------------------------------------------------
                 Nso       57    16     5     5     5     2     8     8     8
                 Nmo       57    16     5     5     5     2     8     8     8
               Ndocc        2     2     0     0     0     0     0     0     0
               Nsocc        2     0     0     0     0     0     1     0     1
   ------------------------------------------------------------------------------
                                   CI Spaces
   ------------------------------------------------------------------------------
        Dropped DOCC        0     0     0     0     0     0     0     0     0
                RAS1        4     2     0     0     0     0     1     0     1
                RAS2        0     0     0     0     0     0     0     0     0
                RAS3       53    14     5     5     5     2     7     8     7
                RAS4        0     0     0     0     0     0     0     0     0
      Active (total)       57    16     5     5     5     2     8     8     8
        Dropped UOCC        0     0     0     0     0     0     0     0     0
   ------------------------------------------------------------------------------

   ==> Setting up CI strings <==

    There are 395010 alpha and 1596 beta strings
    The CI space requires 28361350 (2.84E+07) determinants and 75 blocks

   ==> Transforming CI integrals <==

	Presorting SO-basis two-electron integrals.
	Sorting File: SO Ints (nn|nn) nbuckets = 1
	Constructing frozen core operators
	Starting first half-transformation.
	Sorting half-transformed integrals.
	First half integral transformation complete.
	Starting second half-transformation.
	Two-electron integral transformation complete.

   ==> Starting CI iterations <==

    H0 Block Eigenvalue = -37.76674181

    Simultaneous Expansion Method (Block Davidson Method)
    Using 1 initial trial vectors

     Iter   Root       Total Energy       Delta E      C RMS

   @CI  0:     0    -37.766741807691   -3.7767E+01   1.2108E+00  
   @CI  1:     0    -37.807825915131   -4.1084E-02   1.1576E-01  
   @CI  2:     0    -37.808473183305   -6.4727E-04   2.9548E-02  
   @CI  3:     0    -37.808521712557   -4.8529E-05   8.9122E-03  
   @CI  4:     0    -37.808527564931   -5.8524E-06   3.2269E-03  
   @CI  5:     0    -37.808528237294   -6.7236E-07   9.9208E-04  
   @CI  6:     0    -37.808528293167   -5.5873E-08   2.6869E-04  
   @CI  7:     0    -37.808528299137   -5.9699E-09   1.0730E-04  
   @CI  8:     0    -37.808528299957   -8.2022E-10   3.4898E-05 c

   Computing CI Natural Orbitals

   ==> Energetics <==

    SCF energy =          -37.688609145798253
    Total CI energy =     -37.808528299956748

   ==> CI5 root 0 information <==

    CI5 Root 0 energy =   -37.808528299956748

   Active Space Natural occupation numbers:

        Ag   1.999004        Ag   1.922914       B3u   0.988961
       B1u   0.988961       B2u   0.046344        Ag   0.010461
        Ag   0.006864       B2g   0.006864       B1u   0.006161
       B3u   0.006161       B1g   0.004863       B3g   0.004863
        Ag   0.003100        Ag   0.000514       B1u   0.000490
       B3u   0.000490       B2u   0.000323       B1u   0.000308
       B3u   0.000308        Ag   0.000212       B2g   0.000212
        Au   0.000198       B2u   0.000198        Ag   0.000130
       B1u   0.000121       B3u   0.000121       B1g   0.000104
       B3g   0.000104       B2u   0.000095       B2u   0.000090
        Ag   0.000057       B1u   0.000049       B3u   0.000049
        Ag   0.000025       B2g   0.000025        Ag   0.000021
       B2g   0.000021       B1g   0.000017       B3g   0.000017
       B1u   0.000016       B3u   0.000016        Ag   0.000016
       B1g   0.000016       B3g   0.000016        Ag   0.000011
       B2g   0.000011        Au   0.000011       B2u   0.000011
        Ag   0.000010       B1g   0.000009       B3g   0.000009
       B1u   0.000007       B3u   0.000007        Ag   0.000007
       B2u   0.000006        Ag   0.000003       B2u   0.000002

   The 20 most important determinants:

    *   1    0.970647  (98750,    0)  1AgX 2AgX 1B1uA 1B3uA 
    *   2   -0.096433  (197550, 1170)  1AgX 1B1uA 1B3uA 1B2uX 
    *   3   -0.058553  (197552, 1170)  1AgX 1B1uA 1B3uA 1B2uB 2B2uA 
    *   4   -0.057401  (197550, 1172)  1AgX 1B1uA 1B3uA 1B2uA 2B2uB 
    *   5   -0.040375  (246992, 1378)  1AgX 2AgA 1B1uA 1B3uB 5AgA 
    *   6   -0.040375  (247004, 1378)  1AgX 2AgA 1B3uX 1B2gA 
    *   7    0.040375  (345684,  942)  1AgX 2AgA 1B1uX 1B2gA 
    *   8   -0.040375  (345672,  942)  1AgX 2AgA 1B1uB 1B3uA 5AgA 
    *   9   -0.036113  (197552, 1172)  1AgX 1B1uA 1B3uA 2B2uX 
    *  10   -0.035797  (197545, 1170)  1AgX 2AgA 1B3uA 1B3gA 1B2uB 
    *  11    0.035797  (197540, 1170)  1AgX 2AgA 1B1uA 1B1gA 1B2uB 
    *  12    0.034191  (98750,    3)  1AgX 2AgA 1B1uA 1B3uA 4AgB 
    *  13    0.025909  (345675,  942)  1AgX 2AgA 1B1uB 1B3uA 8AgA 
    *  14    0.025909  (247005, 1378)  1AgX 2AgA 1B3uX 2B2gA 
    *  15   -0.025909  (345685,  942)  1AgX 2AgA 1B1uX 2B2gA 
    *  16    0.025909  (246995, 1378)  1AgX 2AgA 1B1uA 1B3uB 8AgA 
    *  17    0.025070  (98780,    1)  1AgX 2AgA 1B3uA 3AgB 3B1uA 
    *  18   -0.025070  (98787,    1)  1AgX 2AgA 1B1uA 3AgB 3B3uA 
    *  19    0.024686  (98751,    0)  1AgX 2AgB 1B1uA 1B3uA 3AgA 
    *  20   -0.024011  (345671,  942)  1AgX 2AgA 1B1uB 1B3uA 4AgA 

		 "A good bug is a dead bug" 

			 - Starship Troopers

		 "I didn't write FORTRAN.  That's the problem."

			 - Edward Valeev


Properties will be evaluated at   0.000000,   0.000000,   0.000000 [a0]

Properties computed using the CI5 density matrix


 Multipole Moments:

 ------------------------------------------------------------------------------------
     Multipole            Electronic (a.u.)      Nuclear  (a.u.)        Total (a.u.)
 ------------------------------------------------------------------------------------

 L = 1.  Multiply by 2.5417464519 to convert [e a0] to [Debye]
 Dipole X            :          0.0000000            0.0000000            0.0000000
 Dipole Y            :          0.0000000            0.0000000            0.0000000
 Dipole Z            :          0.0000000            0.0000000            0.0000000
 Magnitude           :                                                    0.0000000

 ------------------------------------------------------------------------------------

    Psi4 stopped on: Thursday, 05 June 2025 04:41PM
    Psi4 wall time for execution: 0:35:23.38

*** Psi4 exiting successfully. Buy a developer a beer!
