
    -----------------------------------------------------------------------
          Psi4: An Open-Source Ab Initio Electronic Structure Package
                               Psi4 1.9.1 release

                         Git: Rev {} zzzzzzz 


    D. G. A. Smith, L. A. Burns, A. C. Simmonett, R. M. Parrish,
    M. C. Schieber, R. Galvelis, P. Kraus, H. Kruse, R. Di Remigio,
    A. Alenaizan, A. M. James, S. Lehtola, J. P. Misiewicz, M. Scheurer,
    R. A. Shaw, J. B. Schriber, Y. Xie, Z. L. Glick, D. A. Sirianni,
    J. S. O'Brien, J. M. Waldrop, A. Kumar, E. G. Hohenstein,
    B. P. Pritchard, B. R. Brooks, H. F. Schaefer III, A. Yu. Sokolov,
    K. Patkowski, A. E. DePrince III, U. Bozkaya, R. A. King,
    F. A. Evangelista, J. M. Turney, T. D. Crawford, C. D. Sherrill,
    J. Chem. Phys. 152(18) 184108 (2020). https://doi.org/10.1063/5.0006002

                            Additional Code Authors
    E. T. Seidl, C. L. Janssen, E. F. Valeev, M. L. Leininger,
    J. F. Gonthier, R. M. Richard, H. R. McAlexander, M. Saitow, X. Wang,
    P. Verma, M. H. Lechner, A. Jiang, S. Behnle, A. G. Heide,
    M. F. Herbst, and D. L. Poole

             Previous Authors, Complete List of Code Contributors,
                       and Citations for Specific Modules
    https://github.com/psi4/psi4/blob/master/codemeta.json
    https://github.com/psi4/psi4/graphs/contributors
    http://psicode.org/psi4manual/master/introduction.html#citing-psifour

    -----------------------------------------------------------------------


    Psi4 started on: Thursday, 05 June 2025 05:26PM

    Process ID: 635636
    Host:       na03
    PSIDATADIR: /software-nas/eb2024/easybuild/software/rocky/8.9/amd/zen4/software/PSI4/1.9.1-foss-2023b/share/psi4
    Memory:     500.0 MiB
    Threads:    10
    
  ==> Input File <==

--------------------------------------------------------------------------
memory 60Gb

molecule{
0 2
F     0.00000000  0.00000000  0.00000000
}

set reference rohf
set nat_orbs true
set qc_module detci
set dipmom true

energy("CISDTQ/def2-QZVP")
--------------------------------------------------------------------------

  Memory set to  55.879 GiB by Python driver.

Scratch directory: /scratch/pobleyef/203607/
   => Libint2 <=

    Primary   basis highest AM E, G, H:  5, 4, 3
    Auxiliary basis highest AM E, G, H:  6, 5, 4
    Onebody   basis highest AM E, G, H:  6, 5, 4
    Solid Harmonics ordering:            Gaussian

*** tstart() called on na03
*** at Thu Jun  5 17:26:26 2025

   => Loading Basis Set <=

    Name: DEF2-QZVP
    Role: ORBITAL
    Keyword: BASIS
    atoms 1 entry F          line   338 file /software-nas/eb2024/easybuild/software/rocky/8.9/amd/zen4/software/PSI4/1.9.1-foss-2023b/share/psi4/basis/def2-qzvp.gbs 


         ---------------------------------------------------------
                                   SCF
               by Justin Turney, Rob Parrish, Andy Simmonett
                          and Daniel G. A. Smith
                             ROHF Reference
                       10 Threads,  57220 MiB Core
         ---------------------------------------------------------

  ==> Geometry <==

    Molecular point group: d2h
    Geometry (in Angstrom), charge = 0, multiplicity = 2:

       Center              X                  Y                   Z               Mass       
    ------------   -----------------  -----------------  -----------------  -----------------
         F            0.000000000000     0.000000000000     0.000000000000    18.998403162730

  Running in d2h symmetry.

  Rotational constants: A = ************  B = ************  C = ************ [cm^-1]
  Rotational constants: A = ************  B = ************  C = ************ [MHz]
  Nuclear repulsion =    0.000000000000000

  Charge       = 0
  Multiplicity = 2
  Electrons    = 9
  Nalpha       = 5
  Nbeta        = 4

  ==> Algorithm <==

  SCF Algorithm Type is PK.
  DIIS enabled.
  MOM disabled.
  Fractional occupation disabled.
  Guess Type is CORE.
  Energy threshold   = 1.00e-08
  Density threshold  = 1.00e-08
  Integral threshold = 1.00e-12

  ==> Primary Basis <==

  Basis Set: DEF2-QZVP
    Blend: DEF2-QZVP
    Number of shells: 17
    Number of basis functions: 57
    Number of Cartesian functions: 72
    Spherical Harmonics?: true
    Max angular momentum: 4

  ==> Integral Setup <==

  Using in-core PK algorithm.
   Calculation information:
      Number of atoms:                   1
      Number of AO shells:              17
      Number of primitives:             29
      Number of atomic orbitals:        72
      Number of basis functions:        57

      Integral cutoff                 1.00e-12
      Number of threads:                10

  Performing in-core PK
  Using 2734062 doubles for integral storage.
  We computed 29112 shell quartets total.
  Whereas there are 11781 unique shell quartets.
   147.11 percent of shell quartets recomputed by reordering.

  ==> DiskJK: Disk-Based J/K Matrices <==

    J tasked:                  Yes
    K tasked:                  Yes
    wK tasked:                  No
    Memory [MiB]:            42915
    Schwarz Cutoff:          1E-12

    OpenMP threads:             10

  Minimum eigenvalue in the overlap matrix is 5.4749001211E-03.
  Reciprocal condition number of the overlap matrix is 1.3490445893E-03.
    Using symmetric orthogonalization.

  ==> Pre-Iterations <==

  SCF Guess: Core (One-Electron) Hamiltonian.

   -------------------------------------------------------
    Irrep   Nso     Nmo     Nalpha   Nbeta   Ndocc  Nsocc
   -------------------------------------------------------
     Ag        16      16       2       2       2       0
     B1g        5       5       0       0       0       0
     B2g        5       5       0       0       0       0
     B3g        5       5       0       0       0       0
     Au         2       2       0       0       0       0
     B1u        8       8       1       1       1       0
     B2u        8       8       1       0       0       1
     B3u        8       8       1       1       1       0
   -------------------------------------------------------
    Total      57      57       5       4       4       1
   -------------------------------------------------------

  ==> Iterations <==

                        Total Energy        Delta E     RMS |[F,P]|

   @ROHF iter   1:   -88.44766988514317   -8.84477e+01   2.74218e-01 DIIS
   @ROHF iter   2:   -92.09357903820168   -3.64591e+00   1.02079e-01 DIIS
   @ROHF iter   3:   -98.24640922906866   -6.15283e+00   7.60075e-02 DIIS
   @ROHF iter   4:   -99.31189448547056   -1.06549e+00   1.98169e-02 DIIS
   @ROHF iter   5:   -99.41093217979028   -9.90377e-02   6.66003e-04 DIIS
   @ROHF iter   6:   -99.41104096981839   -1.08790e-04   2.41827e-04 DIIS
   @ROHF iter   7:   -99.41105372928253   -1.27595e-05   2.86146e-05 DIIS
   @ROHF iter   8:   -99.41105403180458   -3.02522e-07   2.92006e-06 DIIS
   @ROHF iter   9:   -99.41105403506879   -3.26420e-09   3.11142e-07 DIIS
   @ROHF iter  10:   -99.41105403509712   -2.83364e-11   1.00398e-07 DIIS
   @ROHF iter  11:   -99.41105403509954   -2.41585e-12   2.11021e-09 DIIS
  Energy and wave function converged.


  ==> Post-Iterations <==

    Orbital Energies [Eh]
    ---------------------

    Doubly Occupied:                                                      

       1Ag   -26.382857     2Ag    -1.572696     1B1u   -0.705620  
       1B3u   -0.705620  

    Singly Occupied:                                                      

       1B2u   -0.358478  

    Virtual:                                                              

       2B2u    0.430407     2B1u    0.433740     2B3u    0.433740  
       3Ag     0.657989     4Ag     1.572548     1B3g    1.576229  
       1B1g    1.576229     1B2g    1.587322     5Ag     1.587322  
       3B2u    1.894792     3B1u    1.901105     3B3u    1.901105  
       6Ag     3.773480     4B2u    4.462278     4B3u    4.467748  
       4B1u    4.467748     1Au     4.483890     5B2u    4.483890  
       5B3u    4.510807     5B1u    4.510807     7Ag     5.304223  
       2B1g    5.313069     2B3g    5.313069     2B2g    5.339405  
       8Ag     5.339405     6B2u    6.621386     6B1u    6.643875  
       6B3u    6.643875     9Ag    11.861710     3B3g   11.866581  
       3B1g   11.866581    10Ag    11.881218     3B2g   11.881218  
       4B3g   11.905692     4B1g   11.905692    11Ag    11.940125  
       4B2g   11.940125    12Ag    15.071877     7B2u   15.110510  
       7B3u   15.118960     7B1u   15.118960     2Au    15.144205  
       8B2u   15.144205     8B1u   15.186386     8B3u   15.186386  
      13Ag    16.342566     5B3g   16.356107     5B1g   16.356107  
      14Ag    16.398472     5B2g   16.398472    15Ag    54.731980  
      16Ag   287.430938  

    Final Occupation by Irrep:
             Ag   B1g   B2g   B3g    Au   B1u   B2u   B3u 
    DOCC [     2,    0,    0,    0,    0,    1,    0,    1 ]
    SOCC [     0,    0,    0,    0,    0,    0,    1,    0 ]
    NA   [     2,    0,    0,    0,    0,    1,    1,    1 ]
    NB   [     2,    0,    0,    0,    0,    1,    0,    1 ]

  @ROHF Final Energy:   -99.41105403509954

   => Energetics <=

    Nuclear Repulsion Energy =              0.0000000000000000
    One-Electron Energy =                -139.2543822772555586
    Two-Electron Energy =                  39.8433282421560193
    Total Energy =                        -99.4110540350995393

Computation Completed


Properties will be evaluated at   0.000000,   0.000000,   0.000000 [a0]

Properties computed using the SCF density matrix


 Multipole Moments:

 ------------------------------------------------------------------------------------
     Multipole            Electronic (a.u.)      Nuclear  (a.u.)        Total (a.u.)
 ------------------------------------------------------------------------------------

 L = 1.  Multiply by 2.5417464519 to convert [e a0] to [Debye]
 Dipole X            :          0.0000000            0.0000000            0.0000000
 Dipole Y            :          0.0000000            0.0000000            0.0000000
 Dipole Z            :          0.0000000            0.0000000            0.0000000
 Magnitude           :                                                    0.0000000

 ------------------------------------------------------------------------------------

*** tstop() called on na03 at Thu Jun  5 17:26:27 2025
Module time:
	user time   =       9.42 seconds =       0.16 minutes
	system time =       0.13 seconds =       0.00 minutes
	total time  =          1 seconds =       0.02 minutes
Total time:
	user time   =       9.42 seconds =       0.16 minutes
	system time =       0.13 seconds =       0.00 minutes
	total time  =          1 seconds =       0.02 minutes
 MINTS: Wrapper to libmints.
   by Justin Turney

   Calculation information:
      Number of threads:                10
      Number of atoms:                   1
      Number of AO shells:              17
      Number of SO shells:              17
      Number of primitives:             29
      Number of atomic orbitals:        72
      Number of basis functions:        57

      Number of irreps:                  8
      Integral cutoff                 1.00e-12
      Number of functions per irrep: [  16    5    5    5    2    8    8    8 ]

 OEINTS: Overlap, kinetic, potential, dipole, and quadrupole integrals
         stored in file 35.

      Computing two-electron integrals...done
      Computed 128567 non-zero two-electron integrals.
        Stored in file 33.


         ---------------------------------------------------------
                          Configuration Interaction
                            (a 'D E T C I' module)

                 C. David Sherrill, Daniel G. A. Smith, and
                              Matt L. Leininger
         ---------------------------------------------------------

Warning: iopen=0,opentype!=closed. Making iopen=1

   ==> Parameters <==

    EX LEVEL       =        4      H0 BLOCKSIZE  =     1000
    VAL EX LEVEL   =        0      H0 GUESS SIZE =     1000
    H0COUPLINGSIZE =        0      H0 COUPLING   =       NO
    MAXITER        =       24      NUM PRINT     =       20
    NUM ROOTS      =        1      ICORE         =        1
    PRINT LVL      =        1      FCI           =       NO
    R CONV         = 1.00e-04      MIXED         =      YES
    E CONV         = 1.00e-06      MIXED4        =      YES
    R4S            =       NO      REPL OTF      =       NO
    DIAG METHOD    =      SEM      FOLLOW ROOT   =        0
    PRECONDITIONER = DAVIDSON      UPDATE        = DAVIDSON
    S              =   0.5000      Ms0           =       NO
    GUESS VECTOR   =  H0BLOCK      OPENTYPE      = HIGHSPIN
    COLLAPSE SIZE  =        1      HD AVG        = EVANGELISTI
    MAX NUM VECS   =       25      REF SYM       =     AUTO
    IOPEN        =      YES

    EX ALLOW       =  1  1  1  1 
    STATE AVERAGE  =  0(1.00) 

   ==> CI Orbital and Space information <==

    RAS1 LVL      =        4      A RAS3 MAX    =        4
    RAS1 MIN      =        5      B RAS3 MAX    =        4
    A RAS1 LVL    =        4      RAS4 LVL      =       57
    A RAS1 MIN    =        1      A RAS4 MAX    =        0
    A RAS1 MAX    =        5      B RAS4 MAX    =        0
    B RAS1 LVL    =        4      RAS4 MAX      =        0
    B RAS1 MIN    =        0      A RAS34 MAX   =        4
    B RAS1 MAX    =        4      B RAS34 MAX   =        4
    RAS3 LVL      =        5      RAS34 MAX     =        4
    RAS3 MAX      =        4
   ------------------------------------------------------------------------------
               Space    Total    Ag   B1g   B2g   B3g    Au   B1u   B2u   B3u
   ------------------------------------------------------------------------------
                 Nso       57    16     5     5     5     2     8     8     8
                 Nmo       57    16     5     5     5     2     8     8     8
               Ndocc        4     2     0     0     0     0     1     0     1
               Nsocc        1     0     0     0     0     0     0     1     0
   ------------------------------------------------------------------------------
                                   CI Spaces
   ------------------------------------------------------------------------------
        Dropped DOCC        0     0     0     0     0     0     0     0     0
                RAS1        5     2     0     0     0     0     1     1     1
                RAS2        0     0     0     0     0     0     0     0     0
                RAS3       52    14     5     5     5     2     7     7     7
                RAS4        0     0     0     0     0     0     0     0     0
      Active (total)       57    16     5     5     5     2     8     8     8
        Dropped UOCC        0     0     0     0     0     0     0     0     0
   ------------------------------------------------------------------------------

   ==> Setting up CI strings <==

    There are 1588146 alpha and 395010 beta strings
    The CI space requires 42281732 (4.23E+07) determinants and 69 blocks

   ==> Transforming CI integrals <==

	Presorting SO-basis two-electron integrals.
	Sorting File: SO Ints (nn|nn) nbuckets = 1
	Constructing frozen core operators
	Starting first half-transformation.
	Sorting half-transformed integrals.
	First half integral transformation complete.
	Starting second half-transformation.
	Two-electron integral transformation complete.

   ==> Starting CI iterations <==

    H0 Block Eigenvalue = -99.49494306

    Simultaneous Expansion Method (Block Davidson Method)
    Using 1 initial trial vectors

     Iter   Root       Total Energy       Delta E      C RMS

   @CI  0:     0    -99.494943063673   -9.9495E+01   2.2601E+00  
   @CI  1:     0    -99.671452508625   -1.7651E-01   3.6415E-01  
   @CI  2:     0    -99.676371452659   -4.9189E-03   9.0945E-02  
   @CI  3:     0    -99.676675003430   -3.0355E-04   2.0931E-02  
   @CI  4:     0    -99.676706289404   -3.1286E-05   9.3711E-03  
   @CI  5:     0    -99.676712929284   -6.6399E-06   4.5251E-03  
   @CI  6:     0    -99.676713998146   -1.0689E-06   1.3535E-03  
   @CI  7:     0    -99.676714094509   -9.6364E-08   4.6004E-04  
   @CI  8:     0    -99.676714107793   -1.3284E-08   1.6688E-04  
   @CI  9:     0    -99.676714109493   -1.7001E-09   5.8768E-05 c

   Computing CI Natural Orbitals

   ==> Energetics <==

    SCF energy =          -99.411054035099539
    Total CI energy =     -99.676714109493233

   ==> CISDTQ root 0 information <==

    CISDTQ Root 0 energy =   -99.676714109493233

   Active Space Natural occupation numbers:

        Ag   1.999486        Ag   1.982182       B3u   1.973415
       B1u   1.973415       B2u   0.994713       B3u   0.014658
       B1u   0.014658        Ag   0.008752       B2u   0.006245
       B2g   0.004790        Ag   0.004790       B3g   0.004758
       B1g   0.004758        Ag   0.004646       B3u   0.000858
       B1u   0.000858       B2u   0.000590        Ag   0.000498
       B2g   0.000498        Ag   0.000455       B3u   0.000449
       B1u   0.000449       B2u   0.000440        Au   0.000440
       B1u   0.000408       B3u   0.000408       B3g   0.000334
       B1g   0.000334       B2u   0.000279        Ag   0.000241
        Ag   0.000114       B3u   0.000100       B1u   0.000100
       B2g   0.000061        Ag   0.000061       B2u   0.000058
       B1g   0.000048       B3g   0.000048       B3u   0.000046
       B1u   0.000046        Ag   0.000045       B2g   0.000045
        Ag   0.000038       B2g   0.000038       B3g   0.000036
       B1g   0.000036        Au   0.000035       B2u   0.000035
        Ag   0.000032       B3g   0.000029       B1g   0.000029
       B1u   0.000027       B3u   0.000027        Ag   0.000024
       B2u   0.000021        Ag   0.000015        Ag   0.000002

   The 20 most important determinants:

    *   1   -0.978936  (794224,98750)  1AgX 2AgX 1B1uX 1B2uA 1B3uX 
    *   2    0.030300  (396787,197540)  1AgX 2AgA 1B1uX 1B2uB 1B3uX 4AgA 
    *   3    0.026096  (396800,197540)  1AgX 2AgA 1B1uX 1B2uX 1B3uB 1B1gA 
    *   4    0.026096  (396805,197540)  1AgX 2AgA 1B1uB 1B2uX 1B3uX 1B3gA 
    *   5   -0.025165  (794253,98801)  1AgX 2AgX 1B2uA 1B3uX 2B1uX 
    *   6    0.025165  (794267,98815)  1AgX 2AgX 1B1uX 1B2uA 2B3uX 
    *   7   -0.024915  (794254,98802)  1AgX 2AgX 1B2uA 1B3uX 3B1uX 
    *   8    0.024915  (794268,98816)  1AgX 2AgX 1B1uX 1B2uA 3B3uX 
    *   9   -0.021121  (794254,98801)  1AgX 2AgX 1B2uA 1B3uX 2B1uB 3B1uA 
    *  10    0.021121  (794268,98815)  1AgX 2AgX 1B1uX 1B2uA 2B3uB 3B3uA 
    *  11    0.020299  (794267,98816)  1AgX 2AgX 1B1uX 1B2uA 2B3uA 3B3uB 
    *  12   -0.020299  (794253,98802)  1AgX 2AgX 1B2uA 1B3uX 2B1uA 3B1uB 
    *  13    0.019353  (794253,98815)  1AgX 2AgX 1B1uB 1B2uA 1B3uA 2B1uA 2B3uB 
    *  14   -0.019353  (794267,98801)  1AgX 2AgX 1B1uA 1B2uA 1B3uB 2B1uB 2B3uA 
    *  15   -0.018384  (396790,197540)  1AgX 2AgA 1B1uX 1B2uB 1B3uX 7AgA 
    *  16   -0.017682  (794261,98816)  1AgX 2AgX 1B1uX 1B3uA 3B2uA 3B3uB 
    *  17    0.017682  (794261,98802)  1AgX 2AgX 1B1uA 1B3uX 3B1uB 3B2uA 
    *  18   -0.017497  (794260,98815)  1AgX 2AgX 1B1uX 1B3uA 2B2uA 2B3uB 
    *  19    0.017497  (794260,98801)  1AgX 2AgX 1B1uA 1B3uX 2B1uB 2B2uA 
    *  20   -0.017445  (794268,98802)  1AgX 2AgX 1B1uA 1B2uA 1B3uB 3B1uB 3B3uA 

		 "A good bug is a dead bug" 

			 - Starship Troopers

		 "I didn't write FORTRAN.  That's the problem."

			 - Edward Valeev


Properties will be evaluated at   0.000000,   0.000000,   0.000000 [a0]

Properties computed using the CISDTQ density matrix


 Multipole Moments:

 ------------------------------------------------------------------------------------
     Multipole            Electronic (a.u.)      Nuclear  (a.u.)        Total (a.u.)
 ------------------------------------------------------------------------------------

 L = 1.  Multiply by 2.5417464519 to convert [e a0] to [Debye]
 Dipole X            :          0.0000000            0.0000000            0.0000000
 Dipole Y            :          0.0000000            0.0000000            0.0000000
 Dipole Z            :          0.0000000            0.0000000            0.0000000
 Magnitude           :                                                    0.0000000

 ------------------------------------------------------------------------------------

    Psi4 stopped on: Thursday, 05 June 2025 06:37PM
    Psi4 wall time for execution: 1:11:26.36

*** Psi4 exiting successfully. Buy a developer a beer!
