
    -----------------------------------------------------------------------
          Psi4: An Open-Source Ab Initio Electronic Structure Package
                               Psi4 1.9.1 release

                         Git: Rev {} zzzzzzz 


    D. G. A. Smith, L. A. Burns, A. C. Simmonett, R. M. Parrish,
    M. C. Schieber, R. Galvelis, P. Kraus, H. Kruse, R. Di Remigio,
    A. Alenaizan, A. M. James, S. Lehtola, J. P. Misiewicz, M. Scheurer,
    R. A. Shaw, J. B. Schriber, Y. Xie, Z. L. Glick, D. A. Sirianni,
    J. S. O'Brien, J. M. Waldrop, A. Kumar, E. G. Hohenstein,
    B. P. Pritchard, B. R. Brooks, H. F. Schaefer III, A. Yu. Sokolov,
    K. Patkowski, A. E. DePrince III, U. Bozkaya, R. A. King,
    F. A. Evangelista, J. M. Turney, T. D. Crawford, C. D. Sherrill,
    J. Chem. Phys. 152(18) 184108 (2020). https://doi.org/10.1063/5.0006002

                            Additional Code Authors
    E. T. Seidl, C. L. Janssen, E. F. Valeev, M. L. Leininger,
    J. F. Gonthier, R. M. Richard, H. R. McAlexander, M. Saitow, X. Wang,
    P. Verma, M. H. Lechner, A. Jiang, S. Behnle, A. G. Heide,
    M. F. Herbst, and D. L. Poole

             Previous Authors, Complete List of Code Contributors,
                       and Citations for Specific Modules
    https://github.com/psi4/psi4/blob/master/codemeta.json
    https://github.com/psi4/psi4/graphs/contributors
    http://psicode.org/psi4manual/master/introduction.html#citing-psifour

    -----------------------------------------------------------------------


    Psi4 started on: Thursday, 05 June 2025 05:36PM

    Process ID: 2028280
    Host:       na06
    PSIDATADIR: /software-nas/eb2024/easybuild/software/rocky/8.9/amd/zen4/software/PSI4/1.9.1-foss-2023b/share/psi4
    Memory:     500.0 MiB
    Threads:    10
    
  ==> Input File <==

--------------------------------------------------------------------------
memory 60Gb

molecule{
0 1
C     0.00000000  0.00000000  0.00000000
Cl     1.03344587  -1.03344587  1.03344587
Cl     -1.03344587  1.03344587  1.03344587
Cl     -1.03344587  -1.03344587  -1.03344587
Cl     1.03344587  1.03344587  -1.03344587
}

set reference rhf
set nat_orbs true
set qc_module detci
set dipmom true

energy("CISD/def2-QZVP")
--------------------------------------------------------------------------

  Memory set to  55.879 GiB by Python driver.

Scratch directory: /scratch/pobleyef/203624/
   => Libint2 <=

    Primary   basis highest AM E, G, H:  5, 4, 3
    Auxiliary basis highest AM E, G, H:  6, 5, 4
    Onebody   basis highest AM E, G, H:  6, 5, 4
    Solid Harmonics ordering:            Gaussian

*** tstart() called on na06
*** at Thu Jun  5 17:36:25 2025

   => Loading Basis Set <=

    Name: DEF2-QZVP
    Role: ORBITAL
    Keyword: BASIS
    atoms 1   entry C          line   194 file /software-nas/eb2024/easybuild/software/rocky/8.9/amd/zen4/software/PSI4/1.9.1-foss-2023b/share/psi4/basis/def2-qzvp.gbs 
    atoms 2-5 entry CL         line   809 file /software-nas/eb2024/easybuild/software/rocky/8.9/amd/zen4/software/PSI4/1.9.1-foss-2023b/share/psi4/basis/def2-qzvp.gbs 


         ---------------------------------------------------------
                                   SCF
               by Justin Turney, Rob Parrish, Andy Simmonett
                          and Daniel G. A. Smith
                              RHF Reference
                       10 Threads,  57220 MiB Core
         ---------------------------------------------------------

  ==> Geometry <==

    Molecular point group: c2v
    Full point group: Td

    Geometry (in Angstrom), charge = 0, multiplicity = 1:

       Center              X                  Y                   Z               Mass       
    ------------   -----------------  -----------------  -----------------  -----------------
         C           -0.000000000000    -0.000000000000     0.000000000000    12.000000000000
         CL           1.461513165332     0.000000000000     1.033445870000    34.968852682000
         CL          -1.461513165332    -0.000000000000     1.033445870000    34.968852682000
         CL           0.000000000000    -1.461513165332    -1.033445870000    34.968852682000
         CL          -0.000000000000     1.461513165332    -1.033445870000    34.968852682000

  Running in c2v symmetry.

  Rotational constants: A =      0.05642  B =      0.05642  C =      0.05642 [cm^-1]
  Rotational constants: A =   1691.49361  B =   1691.49361  C =   1691.49361 [MHz]
  Nuclear repulsion =  434.537150309507126

  Charge       = 0
  Multiplicity = 1
  Electrons    = 74
  Nalpha       = 37
  Nbeta        = 37

  ==> Algorithm <==

  SCF Algorithm Type is PK.
  DIIS enabled.
  MOM disabled.
  Fractional occupation disabled.
  Guess Type is SAD.
  Energy threshold   = 1.00e-08
  Density threshold  = 1.00e-08
  Integral threshold = 1.00e-12

  ==> Primary Basis <==

  Basis Set: DEF2-QZVP
    Blend: DEF2-QZVP
    Number of shells: 105
    Number of basis functions: 337
    Number of Cartesian functions: 416
    Spherical Harmonics?: true
    Max angular momentum: 4

  ==> Integral Setup <==

  Using in-core PK algorithm.
   Calculation information:
      Number of atoms:                   5
      Number of AO shells:             105
      Number of primitives:            193
      Number of atomic orbitals:       416
      Number of basis functions:       337

      Integral cutoff                 1.00e-12
      Number of threads:                10

  Performing in-core PK
  Using 3243701162 doubles for integral storage.
  We computed 12875470 shell quartets total.
  Whereas there are 15487395 unique shell quartets.

  ==> DiskJK: Disk-Based J/K Matrices <==

    J tasked:                  Yes
    K tasked:                  Yes
    wK tasked:                  No
    Memory [MiB]:            42915
    Schwarz Cutoff:          1E-12

    OpenMP threads:             10

  Minimum eigenvalue in the overlap matrix is 2.0112495517E-04.
  Reciprocal condition number of the overlap matrix is 3.0812083415E-05.
    Using symmetric orthogonalization.

  ==> Pre-Iterations <==

  SCF Guess: Superposition of Atomic Densities via on-the-fly atomic UHF (no occupation information).

   -------------------------
    Irrep   Nso     Nmo    
   -------------------------
     A1       116     116 
     A2        55      55 
     B1        83      83 
     B2        83      83 
   -------------------------
    Total     337     337
   -------------------------

  ==> Iterations <==

                        Total Energy        Delta E     RMS |[F,P]|

   @RHF iter SAD: -1875.83453077100376   -1.87583e+03   0.00000e+00 
   @RHF iter   1: -1875.80596514890340    2.85656e-02   3.06812e-03 ADIIS/DIIS
   @RHF iter   2: -1875.84303461479294   -3.70695e-02   2.73531e-03 ADIIS/DIIS
   @RHF iter   3: -1875.93240200383821   -8.93674e-02   3.42919e-04 ADIIS/DIIS
   @RHF iter   4: -1875.93521676238856   -2.81476e-03   1.19467e-04 ADIIS/DIIS
   @RHF iter   5: -1875.93581043019981   -5.93668e-04   2.36079e-05 DIIS
   @RHF iter   6: -1875.93583538583425   -2.49556e-05   3.78161e-06 DIIS
   @RHF iter   7: -1875.93583568393001   -2.98096e-07   7.03397e-07 DIIS
   @RHF iter   8: -1875.93583569635780   -1.24278e-08   1.33360e-07 DIIS
   @RHF iter   9: -1875.93583569687826   -5.20458e-10   2.86254e-08 DIIS
   @RHF iter  10: -1875.93583569690759   -2.93312e-11   6.13173e-09 DIIS
  Energy and wave function converged.


  ==> Post-Iterations <==

    Orbital Energies [Eh]
    ---------------------

    Doubly Occupied:                                                      

       1B1  -104.877913     1A1  -104.877913     1B2  -104.877913  
       2A1  -104.877912     3A1   -11.502167     2B1   -10.602610  
       4A1   -10.602610     2B2   -10.602610     5A1   -10.602591  
       3B1    -8.069497     6A1    -8.069497     3B2    -8.069497  
       7A1    -8.069492     8A1    -8.067558     1A2    -8.067558  
       4B1    -8.067557     2A2    -8.067557     4B2    -8.067557  
       5B2    -8.067556     9A1    -8.067556     5B1    -8.067556  
      10A1    -1.270147     6B1    -1.124215    11A1    -1.124215  
       6B2    -1.124215    12A1    -0.834086     7B1    -0.652075  
      13A1    -0.652075     7B2    -0.652075     3A2    -0.529752  
      14A1    -0.529752     8B2    -0.488103     8B1    -0.488103  
      15A1    -0.488103     9B1    -0.462101     4A2    -0.462101  
       9B2    -0.462101  

    Virtual:                                                              

      16A1     0.075965    10B1     0.130802    10B2     0.130802  
      17A1     0.130802    18A1     0.215250    11B2     0.215250  
      11B1     0.215250    19A1     0.227660     5A2     0.286346  
      20A1     0.286346    12B2     0.301320    21A1     0.301320  
      12B1     0.301320    22A1     0.320468    13B1     0.320468  
      13B2     0.320468    14B1     0.338531     6A2     0.338531  
      14B2     0.338531    23A1     0.392395     7A2     0.394667  
      24A1     0.394667    25A1     0.399489    15B2     0.399489  
      15B1     0.399489    16B1     0.529394     8A2     0.529394  
      16B2     0.529394    26A1     0.576149     9A2     0.576149  
      27A1     0.649470    17B2     0.649470    17B1     0.649470  
      28A1     0.679213    18B2     0.679213    18B1     0.679213  
      19B1     0.710150    10A2     0.710150    19B2     0.710150  
      29A1     0.716511    20B2     0.784314    30A1     0.784314  
      20B1     0.784314    31A1     0.837336    21B2     1.010235  
      32A1     1.010235    21B1     1.010235    11A2     1.027172  
      33A1     1.027172    22B2     1.159050    34A1     1.159050  
      22B1     1.159050    12A2     1.211219    35A1     1.211219  
      36A1     1.260502    23B2     1.291722    23B1     1.291722  
      37A1     1.291722    24B1     1.345315    24B2     1.345315  
      13A2     1.345315    25B2     1.388837    25B1     1.388837  
      38A1     1.388837    26B1     1.395655    14A2     1.395655  
      26B2     1.395655    39A1     1.396881    15A2     1.436144  
      40A1     1.436144    27B2     1.444806    27B1     1.444806  
      41A1     1.444806    28B1     1.463096    28B2     1.463096  
      16A2     1.463096    17A2     1.514596    42A1     1.514596  
      29B2     1.517128    43A1     1.517128    29B1     1.517128  
      30B1     1.521478    30B2     1.521478    18A2     1.521478  
      44A1     1.592605    31B1     1.592605    31B2     1.592605  
      19A2     1.623971    45A1     1.721169    32B2     1.721169  
      32B1     1.721169    46A1     1.744322    33B1     1.751195  
      20A2     1.751195    33B2     1.751195    47A1     1.774552  
      21A2     1.774552    34B1     1.903844    48A1     1.903844  
      34B2     1.903844    49A1     1.967903    50A1     2.097157  
      35B2     2.097157    35B1     2.097157    22A2     2.215230  
      36B1     2.215230    36B2     2.215230    37B2     2.231387  
      37B1     2.231387    51A1     2.231387    52A1     2.246589  
      53A1     2.354215    23A2     2.354215    24A2     2.463844  
      54A1     2.463844    55A1     2.586082    38B2     2.586082  
      38B1     2.586082    56A1     2.704008    57A1     2.753442  
      39B2     2.753442    39B1     2.753442    25A2     2.774711  
      40B2     2.774711    40B1     2.774711    41B2     3.012777  
      41B1     3.012777    58A1     3.012777    59A1     3.286649  
      42B1     3.412864    42B2     3.412864    60A1     3.412864  
      61A1     3.604500    43B2     3.604500    43B1     3.604500  
      62A1     3.604743    26A2     3.604743    44B1     3.617236  
      27A2     3.617236    44B2     3.617236    45B1     3.649275  
      28A2     3.649275    45B2     3.649275    29A2     3.713904  
      63A1     3.713904    46B2     3.770841    46B1     3.770841  
      64A1     3.770841    47B1     3.804619    47B2     3.804619  
      30A2     3.804619    65A1     3.829531    66A1     3.871195  
      48B2     3.871195    48B1     3.871195    49B2     3.905175  
      31A2     3.905175    49B1     3.905175    32A2     3.910996  
      33A2     3.911053    67A1     3.911053    50B1     3.920435  
      68A1     3.920435    50B2     3.920435    51B1     3.921360  
      34A2     3.921360    51B2     3.921360    52B2     3.954864  
      69A1     3.954864    52B1     3.954864    70A1     3.982803  
      71A1     4.050575    35A2     4.050575    53B2     4.107126  
      53B1     4.107126    72A1     4.107126    73A1     4.136661  
      36A2     4.214703    74A1     4.214703    54B2     4.236671  
      37A2     4.236671    54B1     4.236671    75A1     4.247073  
      55B2     4.247073    55B1     4.247073    38A2     4.261662  
      76A1     4.261662    39A2     4.283685    56B1     4.283685  
      56B2     4.283685    77A1     4.292190    57B1     4.292190  
      57B2     4.292190    78A1     4.326977    58B2     4.326977  
      58B1     4.326977    40A2     4.348983    59B2     4.420285  
      59B1     4.420285    41A2     4.420285    79A1     4.427477  
      42A2     4.477985    80A1     4.477985    81A1     4.480487  
      60B1     4.480487    60B2     4.480487    61B2     4.737746  
      61B1     4.737746    82A1     4.737746    62B1     4.755938  
      62B2     4.755938    43A2     4.755938    83A1     4.862322  
      63B2     4.960550    63B1     4.960550    84A1     4.960550  
      44A2     5.055325    64B1     5.055325    64B2     5.055325  
      85A1     5.064143    45A2     5.145654    86A1     5.145654  
      87A1     5.226897    65B1     5.226897    65B2     5.226897  
      88A1     5.458924    66B1     5.458924    66B2     5.458924  
      89A1     5.871809    46A2     5.871809    67B1     6.210492  
      67B2     6.210492    47A2     6.210492    90A1     6.494142  
      68B2     6.494142    68B1     6.494142    91A1     6.717496  
      48A2     6.948563    92A1     6.948563    93A1     7.036075  
      69B2     7.036075    69B1     7.036075    94A1     7.184933  
      70B2     7.200206    70B1     7.200206    49A2     7.200206  
      71B1     7.776121    71B2     7.776121    95A1     7.776121  
      96A1     8.906345    72B1     9.414817    72B2     9.414817  
      97A1     9.414817    98A1     9.416482    73B2    11.277205  
      73B1    11.277205    99A1    11.277205    50A2    11.290246  
     100A1    11.290246    74B1    11.293615    74B2    11.293615  
      51A2    11.293615    52A2    11.470915    75B1    11.470915  
      75B2    11.470915   101A1    11.482562    76B2    11.482562  
      76B1    11.482562   102A1    11.547043    53A2    11.547043  
     103A1    11.743254    77B1    11.743254    77B2    11.743254  
     104A1    11.913290   105A1    28.797110   106A1    29.699814  
      78B1    30.071624   107A1    30.071624    78B2    30.071624  
      54A2    43.241624   108A1    43.241624    79B2    43.246308  
     109A1    43.246308    79B1    43.246308    80B1    43.253367  
      55A2    43.253367    80B2    43.253367    81B1    43.336295  
     110A1    43.336295    81B2    43.336295   111A1    43.389311  
     112A1   100.025229    82B1   100.465299   113A1   100.465299  
      82B2   100.465299   114A1   149.387043   115A1   530.157298  
      83B1   530.879972   116A1   530.879972    83B2   530.879972  

    Final Occupation by Irrep:
             A1    A2    B1    B2 
    DOCC [    15,    4,    9,    9 ]
    NA   [    15,    4,    9,    9 ]
    NB   [    15,    4,    9,    9 ]

  @RHF Final Energy: -1875.93583569690759

   => Energetics <=

    Nuclear Repulsion Energy =            434.5371503095071262
    One-Electron Energy =               -3457.7741835542315130
    Two-Electron Energy =                1147.3011975478168551
    Total Energy =                      -1875.9358356969075885

Computation Completed


Properties will be evaluated at   0.000000,   0.000000,   0.000000 [a0]

Properties computed using the SCF density matrix


 Multipole Moments:

 ------------------------------------------------------------------------------------
     Multipole            Electronic (a.u.)      Nuclear  (a.u.)        Total (a.u.)
 ------------------------------------------------------------------------------------

 L = 1.  Multiply by 2.5417464519 to convert [e a0] to [Debye]
 Dipole X            :          0.0000000           -0.0000000           -0.0000000
 Dipole Y            :          0.0000000            0.0000000            0.0000000
 Dipole Z            :         -0.0000000            0.0000000           -0.0000000
 Magnitude           :                                                    0.0000000

 ------------------------------------------------------------------------------------

*** tstop() called on na06 at Thu Jun  5 17:37:17 2025
Module time:
	user time   =     136.84 seconds =       2.28 minutes
	system time =       6.20 seconds =       0.10 minutes
	total time  =         52 seconds =       0.87 minutes
Total time:
	user time   =     136.84 seconds =       2.28 minutes
	system time =       6.20 seconds =       0.10 minutes
	total time  =         52 seconds =       0.87 minutes
 MINTS: Wrapper to libmints.
   by Justin Turney

   Calculation information:
      Number of threads:                10
      Number of atoms:                   5
      Number of AO shells:             105
      Number of SO shells:              61
      Number of primitives:            193
      Number of atomic orbitals:       416
      Number of basis functions:       337

      Number of irreps:                  4
      Integral cutoff                 1.00e-12
      Number of functions per irrep: [ 116   55   83   83 ]

 OEINTS: Overlap, kinetic, potential, dipole, and quadrupole integrals
         stored in file 35.

      Computing two-electron integrals...done
      Computed 339603173 non-zero two-electron integrals.
        Stored in file 33.


         ---------------------------------------------------------
                          Configuration Interaction
                            (a 'D E T C I' module)

                 C. David Sherrill, Daniel G. A. Smith, and
                              Matt L. Leininger
         ---------------------------------------------------------


Traceback (most recent call last):
  File "/eb/x86_64/software/PSI4/1.9.1-foss-2023b/bin/psi4", line 387, in <module>
    exec(content)
  File "<string>", line 33, in <module>
  File "/software-nas/eb2024/easybuild/software/rocky/8.9/amd/zen4/software/PSI4/1.9.1-foss-2023b/lib/python3.11/site-packages/psi4/driver/driver.py", line 525, in energy
    wfn = procedures['energy'][lowername](lowername, molecule=molecule, **kwargs)
          ^^^^^^^^^^^^^^^^^^^^^^^^^^^^^^^^^^^^^^^^^^^^^^^^^^^^^^^^^^^^^^^^^^^^^^^
  File "/software-nas/eb2024/easybuild/software/rocky/8.9/amd/zen4/software/PSI4/1.9.1-foss-2023b/lib/python3.11/site-packages/psi4/driver/procrouting/proc.py", line 1108, in select_cisd
    return func(name, **kwargs)
           ^^^^^^^^^^^^^^^^^^^^
  File "/software-nas/eb2024/easybuild/software/rocky/8.9/amd/zen4/software/PSI4/1.9.1-foss-2023b/lib/python3.11/site-packages/psi4/driver/procrouting/proc.py", line 4137, in run_detci
    ciwfn = core.detci(ref_wfn)
            ^^^^^^^^^^^^^^^^^^^

ValueError: vector::_M_default_append


Printing out the relevant lines from the Psithon --> Python processed input file:
    core.IO.set_default_namespace("")
    core.set_global_option("REFERENCE", "rhf")
    core.set_global_option("NAT_ORBS", "true")
    core.set_global_option("QC_MODULE", "detci")
    core.set_global_option("DIPMOM", "true")
--> energy("CISD/def2-QZVP")

!--------------------------------!
!                                !
!  vector::_M_default_append     !
!                                !
!--------------------------------!

    Psi4 stopped on: Thursday, 05 June 2025 05:37PM
    Psi4 wall time for execution: 0:01:23.48

*** Psi4 encountered an error. Buy a developer more coffee!
*** Resources and help at github.com/psi4/psi4.
