
    -----------------------------------------------------------------------
          Psi4: An Open-Source Ab Initio Electronic Structure Package
                               Psi4 1.9.1 release

                         Git: Rev {} zzzzzzz 


    D. G. A. Smith, L. A. Burns, A. C. Simmonett, R. M. Parrish,
    M. C. Schieber, R. Galvelis, P. Kraus, H. Kruse, R. Di Remigio,
    A. Alenaizan, A. M. James, S. Lehtola, J. P. Misiewicz, M. Scheurer,
    R. A. Shaw, J. B. Schriber, Y. Xie, Z. L. Glick, D. A. Sirianni,
    J. S. O'Brien, J. M. Waldrop, A. Kumar, E. G. Hohenstein,
    B. P. Pritchard, B. R. Brooks, H. F. Schaefer III, A. Yu. Sokolov,
    K. Patkowski, A. E. DePrince III, U. Bozkaya, R. A. King,
    F. A. Evangelista, J. M. Turney, T. D. Crawford, C. D. Sherrill,
    J. Chem. Phys. 152(18) 184108 (2020). https://doi.org/10.1063/5.0006002

                            Additional Code Authors
    E. T. Seidl, C. L. Janssen, E. F. Valeev, M. L. Leininger,
    J. F. Gonthier, R. M. Richard, H. R. McAlexander, M. Saitow, X. Wang,
    P. Verma, M. H. Lechner, A. Jiang, S. Behnle, A. G. Heide,
    M. F. Herbst, and D. L. Poole

             Previous Authors, Complete List of Code Contributors,
                       and Citations for Specific Modules
    https://github.com/psi4/psi4/blob/master/codemeta.json
    https://github.com/psi4/psi4/graphs/contributors
    http://psicode.org/psi4manual/master/introduction.html#citing-psifour

    -----------------------------------------------------------------------


    Psi4 started on: Thursday, 05 June 2025 04:04PM

    Process ID: 506825
    Host:       nh001
    PSIDATADIR: /software-nas/eb2024/easybuild/software/rocky/8.9/intel/cascadelake/software/PSI4/1.9.1-foss-2023b/share/psi4
    Memory:     500.0 MiB
    Threads:    40
    
  ==> Input File <==

--------------------------------------------------------------------------
memory 60Gb

molecule{
1 2
H     0.00000000  0.00000000  -0.92511507
H     0.00000000  0.00000000  0.92511507
}

set reference rohf
set nat_orbs true
set qc_module detci
set dipmom true

energy("FCI/def2-QZVP")
--------------------------------------------------------------------------

  Memory set to  55.879 GiB by Python driver.

Scratch directory: /scratch/pobleyef/203548/
   => Libint2 <=

    Primary   basis highest AM E, G, H:  5, 4, 3
    Auxiliary basis highest AM E, G, H:  6, 5, 4
    Onebody   basis highest AM E, G, H:  6, 5, 4
    Solid Harmonics ordering:            Gaussian

*** tstart() called on nh001
*** at Thu Jun  5 16:04:58 2025

   => Loading Basis Set <=

    Name: DEF2-QZVP
    Role: ORBITAL
    Keyword: BASIS
    atoms 1-2 entry H          line    15 file /software-nas/eb2024/easybuild/software/rocky/8.9/intel/cascadelake/software/PSI4/1.9.1-foss-2023b/share/psi4/basis/def2-qzvp.gbs 


         ---------------------------------------------------------
                                   SCF
               by Justin Turney, Rob Parrish, Andy Simmonett
                          and Daniel G. A. Smith
                             ROHF Reference
                       40 Threads,  57220 MiB Core
         ---------------------------------------------------------

  ==> Geometry <==

    Molecular point group: d2h
    Full point group: D_inf_h

    Geometry (in Angstrom), charge = 1, multiplicity = 2:

       Center              X                  Y                   Z               Mass       
    ------------   -----------------  -----------------  -----------------  -----------------
         H            0.000000000000     0.000000000000    -0.925115070000     1.007825032230
         H            0.000000000000     0.000000000000     0.925115070000     1.007825032230

  Running in d2h symmetry.

  Rotational constants: A = ************  B =      9.77214  C =      9.77214 [cm^-1]
  Rotational constants: A = ************  B = 292961.50050  C = 292961.50050 [MHz]
  Nuclear repulsion =    0.286006156331450

  Charge       = 1
  Multiplicity = 2
  Electrons    = 1
  Nalpha       = 1
  Nbeta        = 0

  ==> Algorithm <==

  SCF Algorithm Type is PK.
  DIIS enabled.
  MOM disabled.
  Fractional occupation disabled.
  Guess Type is SAD.
  Energy threshold   = 1.00e-08
  Density threshold  = 1.00e-08
  Integral threshold = 1.00e-12

  ==> Primary Basis <==

  Basis Set: DEF2-QZVP
    Blend: DEF2-QZVP
    Number of shells: 20
    Number of basis functions: 60
    Number of Cartesian functions: 70
    Spherical Harmonics?: true
    Max angular momentum: 3

  ==> Integral Setup <==

  Using in-core PK algorithm.
   Calculation information:
      Number of atoms:                   2
      Number of AO shells:              20
      Number of primitives:             26
      Number of atomic orbitals:        70
      Number of basis functions:        60

      Integral cutoff                 1.00e-12
      Number of threads:                40

  Performing in-core PK
  Using 3350730 doubles for integral storage.
  We computed 123469 shell quartets total.
  Whereas there are 22155 unique shell quartets.
   457.30 percent of shell quartets recomputed by reordering.

  ==> DiskJK: Disk-Based J/K Matrices <==

    J tasked:                  Yes
    K tasked:                  Yes
    wK tasked:                  No
    Memory [MiB]:            42915
    Schwarz Cutoff:          1E-12

    OpenMP threads:             40

  Minimum eigenvalue in the overlap matrix is 2.6860884538E-02.
  Reciprocal condition number of the overlap matrix is 8.2758016739E-03.
    Using symmetric orthogonalization.

  ==> Pre-Iterations <==

  SCF Guess: Superposition of Atomic Densities via on-the-fly atomic UHF (no occupation information).

   -------------------------
    Irrep   Nso     Nmo    
   -------------------------
     Ag        13      13 
     B1g        3       3 
     B2g        7       7 
     B3g        7       7 
     Au         3       3 
     B1u       13      13 
     B2u        7       7 
     B3u        7       7 
   -------------------------
    Total      60      60
   -------------------------

  ==> Iterations <==

                        Total Energy        Delta E     RMS |[F,P]|

   @ROHF iter SAD:    -0.74974919014422   -7.49749e-01   0.00000e+00 
   @ROHF iter   1:    -0.53796153681616    2.11788e-01   4.96730e-03 DIIS
   @ROHF iter   2:    -0.56027450518732   -2.23130e-02   8.48069e-04 DIIS
   @ROHF iter   3:    -0.56073402069589   -4.59516e-04   5.83008e-05 DIIS
   @ROHF iter   4:    -0.56073563865848   -1.61796e-06   6.59835e-06 DIIS
   @ROHF iter   5:    -0.56073567746352   -3.88050e-08   7.14917e-07 DIIS
   @ROHF iter   6:    -0.56073567781925   -3.55736e-10   6.38296e-08 DIIS
   @ROHF iter   7:    -0.56073567782229   -3.04001e-12   8.07913e-10 DIIS
  Energy and wave function converged.


  ==> Post-Iterations <==

    Orbital Energies [Eh]
    ---------------------

    Doubly Occupied:                                                      

    

    Singly Occupied:                                                      

       1Ag    -0.601366  

    Virtual:                                                              

       1B1u   -0.331369     2Ag    -0.012749     2B1u    0.033787  
       1B3u    0.157384     1B2u    0.157384     3Ag     0.222053  
       1B3g    0.337612     1B2g    0.337612     3B1u    0.604445  
       4Ag     0.867028     4B1u    0.933521     5Ag     1.490414  
       2B3u    1.499197     2B2u    1.499197     1B1g    1.650910  
       6Ag     1.650910     1Au     1.750171     5B1u    1.750171  
       2B3g    1.919477     2B2g    1.919477     3B2u    1.963928  
       3B3u    1.963928     6B1u    2.078653     3B3g    2.136755  
       3B2g    2.136755     7Ag     2.221262     7B1u    2.756218  
       8Ag     4.880447     8B1u    4.908189     9Ag     5.439819  
       4B2u    5.484053     4B3u    5.484053     2B1g    5.587530  
      10Ag     5.587530     5B2u    5.619819     5B3u    5.619819  
       4B3g    5.624474     4B2g    5.624474     9B1u    5.652574  
       2Au     5.652574     5B3g    5.803450     5B2g    5.803450  
      10B1u    6.041897    11Ag     7.252559     6B2u    7.274357  
       6B3u    7.274357     6B2g    7.326084     6B3g    7.326084  
      11B1u    7.518348     7B2u    7.556945     7B3u    7.556945  
       3B1g    7.617512    12Ag     7.617512    12B1u    7.683541  
       3Au     7.683541    13Ag     7.886430     7B2g    7.918935  
       7B3g    7.918935    13B1u    8.613089  

    Final Occupation by Irrep:
             Ag   B1g   B2g   B3g    Au   B1u   B2u   B3u 
    DOCC [     0,    0,    0,    0,    0,    0,    0,    0 ]
    SOCC [     1,    0,    0,    0,    0,    0,    0,    0 ]
    NA   [     1,    0,    0,    0,    0,    0,    0,    0 ]
    NB   [     0,    0,    0,    0,    0,    0,    0,    0 ]

  @ROHF Final Energy:    -0.56073567782229

   => Energetics <=

    Nuclear Repulsion Energy =              0.2860061563314497
    One-Electron Energy =                  -0.8467418341537414
    Two-Electron Energy =                   0.0000000000000000
    Total Energy =                         -0.5607356778222916

Computation Completed


Properties will be evaluated at   0.000000,   0.000000,   0.000000 [a0]

Properties computed using the SCF density matrix


 Multipole Moments:

 ------------------------------------------------------------------------------------
     Multipole            Electronic (a.u.)      Nuclear  (a.u.)        Total (a.u.)
 ------------------------------------------------------------------------------------

 L = 1.  Multiply by 2.5417464519 to convert [e a0] to [Debye]
 Dipole X            :          0.0000000            0.0000000            0.0000000
 Dipole Y            :          0.0000000            0.0000000            0.0000000
 Dipole Z            :          0.0000000            0.0000000            0.0000000
 Magnitude           :                                                    0.0000000

 ------------------------------------------------------------------------------------

*** tstop() called on nh001 at Thu Jun  5 16:04:59 2025
Module time:
	user time   =      10.68 seconds =       0.18 minutes
	system time =       0.23 seconds =       0.00 minutes
	total time  =          1 seconds =       0.02 minutes
Total time:
	user time   =      10.68 seconds =       0.18 minutes
	system time =       0.23 seconds =       0.00 minutes
	total time  =          1 seconds =       0.02 minutes
 MINTS: Wrapper to libmints.
   by Justin Turney

   Calculation information:
      Number of threads:                40
      Number of atoms:                   2
      Number of AO shells:              20
      Number of SO shells:              10
      Number of primitives:             26
      Number of atomic orbitals:        70
      Number of basis functions:        60

      Number of irreps:                  8
      Integral cutoff                 1.00e-12
      Number of functions per irrep: [  13    3    7    7    3   13    7    7 ]

 OEINTS: Overlap, kinetic, potential, dipole, and quadrupole integrals
         stored in file 35.

      Computing two-electron integrals...done
      Computed 180477 non-zero two-electron integrals.
        Stored in file 33.


         ---------------------------------------------------------
                          Configuration Interaction
                            (a 'D E T C I' module)

                 C. David Sherrill, Daniel G. A. Smith, and
                              Matt L. Leininger
         ---------------------------------------------------------

Warning: iopen=0,opentype!=closed. Making iopen=1

   ==> Parameters <==

    EX LEVEL       =        1      H0 BLOCKSIZE  =     1000
    VAL EX LEVEL   =        0      H0 GUESS SIZE =     1000
    H0COUPLINGSIZE =        0      H0 COUPLING   =       NO
    MAXITER        =       24      NUM PRINT     =       20
    NUM ROOTS      =        1      ICORE         =        1
    PRINT LVL      =        1      FCI           =      YES
    R CONV         = 1.00e-04      MIXED         =      YES
    E CONV         = 1.00e-06      MIXED4        =      YES
    R4S            =       NO      REPL OTF      =       NO
    DIAG METHOD    =      SEM      FOLLOW ROOT   =        0
    PRECONDITIONER = DAVIDSON      UPDATE        = DAVIDSON
    S              =   0.5000      Ms0           =       NO
    GUESS VECTOR   =  H0BLOCK      OPENTYPE      = HIGHSPIN
    COLLAPSE SIZE  =        1      HD AVG        = EVANGELISTI
    MAX NUM VECS   =       25      REF SYM       =     AUTO
    IOPEN        =      YES

    EX ALLOW       =  1 
    STATE AVERAGE  =  0(1.00) 

   ==> CI Orbital and Space information <==

   ------------------------------------------------------------------------------
               Space    Total    Ag   B1g   B2g   B3g    Au   B1u   B2u   B3u
   ------------------------------------------------------------------------------
                 Nso       60    13     3     7     7     3    13     7     7
                 Nmo       60    13     3     7     7     3    13     7     7
               Ndocc        0     0     0     0     0     0     0     0     0
               Nsocc        1     1     0     0     0     0     0     0     0
   ------------------------------------------------------------------------------
                                   CI Spaces
   ------------------------------------------------------------------------------
        Dropped DOCC        0     0     0     0     0     0     0     0     0
              Active       60    13     3     7     7     3    13     7     7
        Dropped UOCC        0     0     0     0     0     0     0     0     0
   ------------------------------------------------------------------------------

   ==> Setting up CI strings <==

    There are 60 alpha and 1 beta strings
    The CI space requires 13 (1.30E+01) determinants and 1 blocks

   ==> Transforming CI integrals <==

	Presorting SO-basis two-electron integrals.
	Sorting File: SO Ints (nn|nn) nbuckets = 1
	Constructing frozen core operators
	Starting first half-transformation.
	Sorting half-transformed integrals.
	First half integral transformation complete.
	Starting second half-transformation.
	Two-electron integral transformation complete.

   ==> Starting CI iterations <==

    H0 Block Eigenvalue =  -0.56073568

    Simultaneous Expansion Method (Block Davidson Method)
    Using 1 initial trial vectors

     Iter   Root       Total Energy       Delta E      C RMS

   @CI  0:     0     -0.560735677822   -8.4674E-01   1.9782E-10  
    Warning: Norm of correction (root 0) is < 1.0E-13
   @CI  1:     0     -0.560735677822   0.0000E+00   7.6389E-12 c

   Computing CI Natural Orbitals

   ==> Energetics <==

    SCF energy =           -0.560735677822292
    Total CI energy =      -0.560735677822292

   ==> FCI root 0 information <==

    FCI Root 0 energy =    -0.560735677822292

   Active Space Natural occupation numbers:

        Ag   1.000000        Ag   0.000000        Ag   0.000000
        Ag   0.000000        Ag   0.000000        Ag   0.000000
        Ag   0.000000       B1g   0.000000       B1g   0.000000
       B1g   0.000000       B2g   0.000000       B2g   0.000000
       B2g   0.000000       B2g   0.000000       B2g   0.000000
       B2g   0.000000       B2g   0.000000       B3g   0.000000
       B3g   0.000000       B3g   0.000000       B3g   0.000000
       B3g   0.000000       B3g   0.000000       B3g   0.000000
        Au   0.000000        Au   0.000000        Au   0.000000
       B1u   0.000000       B1u   0.000000       B1u   0.000000
       B1u   0.000000       B1u   0.000000       B1u   0.000000
       B1u   0.000000       B1u   0.000000       B1u   0.000000
       B1u   0.000000       B1u   0.000000       B1u   0.000000
       B1u   0.000000       B2u   0.000000       B2u   0.000000
       B2u   0.000000       B2u   0.000000       B2u   0.000000
       B2u   0.000000       B2u   0.000000       B3u   0.000000
       B3u   0.000000       B3u   0.000000       B3u   0.000000
       B3u   0.000000       B3u   0.000000       B3u   0.000000
        Ag  -0.000000        Ag  -0.000000        Ag  -0.000000
        Ag  -0.000000        Ag  -0.000000        Ag  -0.000000

   The 13 most important determinants:

    *   1    1.000000  (    0,    0)  1AgA 
    *   2   -0.000000  (    2,    0)  3AgA 
    *   3   -0.000000  (    1,    0)  2AgA 
    *   4   -0.000000  (    3,    0)  4AgA 
    *   5    0.000000  (    6,    0)  7AgA 
    *   6    0.000000  (    4,    0)  5AgA 
    *   7    0.000000  (    7,    0)  8AgA 
    *   8   -0.000000  (    8,    0)  9AgA 
    *   9    0.000000  (   12,    0)  13AgA 
    *  10    0.000000  (   10,    0)  11AgA 

		 "A good bug is a dead bug" 

			 - Starship Troopers

		 "I didn't write FORTRAN.  That's the problem."

			 - Edward Valeev


Properties will be evaluated at   0.000000,   0.000000,   0.000000 [a0]

Properties computed using the FCI density matrix


 Multipole Moments:

 ------------------------------------------------------------------------------------
     Multipole            Electronic (a.u.)      Nuclear  (a.u.)        Total (a.u.)
 ------------------------------------------------------------------------------------

 L = 1.  Multiply by 2.5417464519 to convert [e a0] to [Debye]
 Dipole X            :          0.0000000            0.0000000            0.0000000
 Dipole Y            :          0.0000000            0.0000000            0.0000000
 Dipole Z            :          0.0000000            0.0000000            0.0000000
 Magnitude           :                                                    0.0000000

 ------------------------------------------------------------------------------------

    Psi4 stopped on: Thursday, 05 June 2025 04:05PM
    Psi4 wall time for execution: 0:00:01.16

*** Psi4 exiting successfully. Buy a developer a beer!
