
    -----------------------------------------------------------------------
          Psi4: An Open-Source Ab Initio Electronic Structure Package
                               Psi4 1.9.1 release

                         Git: Rev {} zzzzzzz 


    D. G. A. Smith, L. A. Burns, A. C. Simmonett, R. M. Parrish,
    M. C. Schieber, R. Galvelis, P. Kraus, H. Kruse, R. Di Remigio,
    A. Alenaizan, A. M. James, S. Lehtola, J. P. Misiewicz, M. Scheurer,
    R. A. Shaw, J. B. Schriber, Y. Xie, Z. L. Glick, D. A. Sirianni,
    J. S. O'Brien, J. M. Waldrop, A. Kumar, E. G. Hohenstein,
    B. P. Pritchard, B. R. Brooks, H. F. Schaefer III, A. Yu. Sokolov,
    K. Patkowski, A. E. DePrince III, U. Bozkaya, R. A. King,
    F. A. Evangelista, J. M. Turney, T. D. Crawford, C. D. Sherrill,
    J. Chem. Phys. 152(18) 184108 (2020). https://doi.org/10.1063/5.0006002

                            Additional Code Authors
    E. T. Seidl, C. L. Janssen, E. F. Valeev, M. L. Leininger,
    J. F. Gonthier, R. M. Richard, H. R. McAlexander, M. Saitow, X. Wang,
    P. Verma, M. H. Lechner, A. Jiang, S. Behnle, A. G. Heide,
    M. F. Herbst, and D. L. Poole

             Previous Authors, Complete List of Code Contributors,
                       and Citations for Specific Modules
    https://github.com/psi4/psi4/blob/master/codemeta.json
    https://github.com/psi4/psi4/graphs/contributors
    http://psicode.org/psi4manual/master/introduction.html#citing-psifour

    -----------------------------------------------------------------------


    Psi4 started on: Thursday, 05 June 2025 05:49PM

    Process ID: 3207889
    Host:       nh009
    PSIDATADIR: /software-nas/eb2024/easybuild/software/rocky/8.9/intel/cascadelake/software/PSI4/1.9.1-foss-2023b/share/psi4
    Memory:     500.0 MiB
    Threads:    10
    
  ==> Input File <==

--------------------------------------------------------------------------
memory 60Gb

molecule{
0 1
Al     0.000000  0.000000  0.000000
F     0.000000  1.631766  0.000000
F     1.413150  -0.815883  0.000000
F     -1.413150  -0.815883  0.000000
}

set reference rhf
set nat_orbs true
set qc_module detci
set dipmom true

energy("CISD/def2-QZVP")
--------------------------------------------------------------------------

  Memory set to  55.879 GiB by Python driver.

Scratch directory: /scratch/pobleyef/203651/
   => Libint2 <=

    Primary   basis highest AM E, G, H:  5, 4, 3
    Auxiliary basis highest AM E, G, H:  6, 5, 4
    Onebody   basis highest AM E, G, H:  6, 5, 4
    Solid Harmonics ordering:            Gaussian

*** tstart() called on nh009
*** at Thu Jun  5 17:49:28 2025

   => Loading Basis Set <=

    Name: DEF2-QZVP
    Role: ORBITAL
    Keyword: BASIS
    atoms 1   entry AL         line   549 file /software-nas/eb2024/easybuild/software/rocky/8.9/intel/cascadelake/software/PSI4/1.9.1-foss-2023b/share/psi4/basis/def2-qzvp.gbs 
    atoms 2-4 entry F          line   338 file /software-nas/eb2024/easybuild/software/rocky/8.9/intel/cascadelake/software/PSI4/1.9.1-foss-2023b/share/psi4/basis/def2-qzvp.gbs 


         ---------------------------------------------------------
                                   SCF
               by Justin Turney, Rob Parrish, Andy Simmonett
                          and Daniel G. A. Smith
                              RHF Reference
                       10 Threads,  57220 MiB Core
         ---------------------------------------------------------

  ==> Geometry <==

    Molecular point group: c2v
    Full point group: C2v

    Geometry (in Angstrom), charge = 0, multiplicity = 1:

       Center              X                  Y                   Z               Mass       
    ------------   -----------------  -----------------  -----------------  -----------------
         AL           0.000000000000    -0.000000000000     0.000000000000    26.981538530000
         F            0.000000000000    -0.000000000000     1.631766000000    18.998403162730
         F            1.413150000000     0.000000000000    -0.815883000000    18.998403162730
         F           -1.413150000000    -0.000000000000    -0.815883000000    18.998403162730

  Running in c2v symmetry.

  Rotational constants: A =      0.22216  B =      0.22216  C =      0.11108 [cm^-1]
  Rotational constants: A =   6660.29673  B =   6660.28911  C =   3330.14646 [MHz]
  Nuclear repulsion =  159.326020022258888

  Charge       = 0
  Multiplicity = 1
  Electrons    = 40
  Nalpha       = 20
  Nbeta        = 20

  ==> Algorithm <==

  SCF Algorithm Type is PK.
  DIIS enabled.
  MOM disabled.
  Fractional occupation disabled.
  Guess Type is SAD.
  Energy threshold   = 1.00e-08
  Density threshold  = 1.00e-08
  Integral threshold = 1.00e-12

  ==> Primary Basis <==

  Basis Set: DEF2-QZVP
    Blend: DEF2-QZVP
    Number of shells: 73
    Number of basis functions: 241
    Number of Cartesian functions: 302
    Spherical Harmonics?: true
    Max angular momentum: 4

  ==> Integral Setup <==

  Using in-core PK algorithm.
   Calculation information:
      Number of atoms:                   4
      Number of AO shells:              73
      Number of primitives:            128
      Number of atomic orbitals:       302
      Number of basis functions:       241

      Integral cutoff                 1.00e-12
      Number of threads:                10

  Performing in-core PK
  Using 850393082 doubles for integral storage.
  We computed 3430270 shell quartets total.
  Whereas there are 3649051 unique shell quartets.

  ==> DiskJK: Disk-Based J/K Matrices <==

    J tasked:                  Yes
    K tasked:                  Yes
    wK tasked:                  No
    Memory [MiB]:            42915
    Schwarz Cutoff:          1E-12

    OpenMP threads:             10

  Minimum eigenvalue in the overlap matrix is 4.2155565944E-04.
  Reciprocal condition number of the overlap matrix is 7.4600880248E-05.
    Using symmetric orthogonalization.

  ==> Pre-Iterations <==

  SCF Guess: Superposition of Atomic Densities via on-the-fly atomic UHF (no occupation information).

   -------------------------
    Irrep   Nso     Nmo    
   -------------------------
     A1        91      91 
     A2        35      35 
     B1        66      66 
     B2        49      49 
   -------------------------
    Total     241     241
   -------------------------

  ==> Iterations <==

                        Total Energy        Delta E     RMS |[F,P]|

   @RHF iter SAD:  -539.10908220006945   -5.39109e+02   0.00000e+00 
   @RHF iter   1:  -540.51421555291597   -1.40513e+00   5.07714e-03 ADIIS/DIIS
   @RHF iter   2:  -540.58724492125975   -7.30294e-02   3.70751e-03 ADIIS/DIIS
   @RHF iter   3:  -540.64121680171263   -5.39719e-02   1.24519e-04 ADIIS/DIIS
   @RHF iter   4:  -540.64131672868439   -9.99270e-05   3.29017e-05 DIIS
   @RHF iter   5:  -540.64132392544877   -7.19676e-06   7.08181e-06 DIIS
   @RHF iter   6:  -540.64132455655533   -6.31107e-07   1.63498e-06 DIIS
   @RHF iter   7:  -540.64132460873600   -5.21807e-08   2.75669e-07 DIIS
   @RHF iter   8:  -540.64132461007102   -1.33502e-09   3.24567e-08 DIIS
   @RHF iter   9:  -540.64132461008376   -1.27329e-11   7.43603e-09 DIIS
  Energy and wave function converged.


  ==> Post-Iterations <==

    Orbital Energies [Eh]
    ---------------------

    Doubly Occupied:                                                      

       1A1   -58.541541     1B1   -26.283134     2A1   -26.283134  
       3A1   -26.283126     4A1    -4.951370     1B2    -3.270433  
       2B1    -3.267633     5A1    -3.267633     6A1    -1.579694  
       3B1    -1.567200     7A1    -1.567200     8A1    -0.735315  
       4B1    -0.692328     9A1    -0.692328     2B2    -0.667056  
      10A1    -0.659276     5B1    -0.659276     1A2    -0.649537  
       3B2    -0.649537     6B1    -0.634293  

    Virtual:                                                              

      11A1     0.035380     4B2     0.057380     7B1     0.088172  
      12A1     0.088173     5B2     0.175861    13A1     0.202849  
       2A2     0.227028     6B2     0.227028    14A1     0.253244  
       8B1     0.274036    15A1     0.274036     9B1     0.313808  
      16A1     0.313808    17A1     0.472953    10B1     0.510450  
      18A1     0.510450    11B1     0.516482     3A2     0.537265  
       7B2     0.537265     8B2     0.566060     9B2     0.596697  
      12B1     0.596902    19A1     0.596902    20A1     0.626665  
       4A2     0.628990    10B2     0.628990    21A1     0.675751  
      13B1     0.675751    22A1     0.692291    11B2     0.703211  
      14B1     0.713389    23A1     0.713389    12B2     0.720179  
       5A2     0.720179    24A1     0.889366    15B1     1.020221  
      25A1     1.024172    16B1     1.024173    17B1     1.304996  
      26A1     1.304996    27A1     1.347517     6A2     1.393021  
      13B2     1.393021    28A1     1.415457    18B1     1.415457  
       7A2     1.427492    29A1     1.505843    30A1     1.625835  
      19B1     1.625835    14B2     1.665072    15B2     1.667492  
       8A2     1.667492    31A1     1.702164    20B1     1.712618  
      32A1     1.731828    21B1     1.731828     9A2     1.794218  
      16B2     1.794218    33A1     1.899015    22B1     1.899015  
      17B2     1.912656    10A2     1.947225    18B2     1.947226  
      34A1     1.999326    19B2     2.060705    11A2     2.063949  
      20B2     2.063949    23B1     2.065713    24B1     2.104243  
      35A1     2.104243    36A1     2.139612    37A1     2.153288  
      25B1     2.153288    21B2     2.185202    38A1     2.278474  
      26B1     2.301738    39A1     2.301739    12A2     2.397253  
      40A1     2.744593    27B1     2.744594    22B2     2.747230  
      13A2     2.747230    23B2     2.918420    41A1     2.930270  
      28B1     3.021980    29B1     3.158086    42A1     3.158087  
      43A1     3.404667    30B1     3.404668    44A1     4.148905  
      31B1     4.373558    45A1     4.373558    24B2     4.409109  
      14A2     4.409109    46A1     4.419213    32B1     4.540310  
      15A2     4.557085    25B2     4.557085    33B1     4.611008  
      47A1     4.611008    26B2     4.616414    16A2     4.739995  
      27B2     4.739995    48A1     4.813386    49A1     4.819193  
      34B1     4.819193    50A1     4.889069    51A1     4.935101  
      35B1     4.935102    17A2     4.953403    28B2     4.996368  
      29B2     5.220361    18A2     5.220361    52A1     5.228233  
      36B1     5.228233    37B1     5.299415    19A2     5.581062  
      30B2     5.581062    53A1     5.701571    38B1     5.708287  
      54A1     5.708287    20A2     5.782614    55A1     5.898720  
      39B1     5.898720    56A1     5.944961    31B2     6.124431  
      32B2     6.143613    21A2     6.143613    40B1     6.288451  
      57A1     6.327345    41B1     6.327346    58A1     6.518920  
      42B1     6.518920    59A1     6.822387    33B2     6.922457  
      34B2     6.984569    22A2     6.984569    43B1     7.043245  
      44B1     7.122178    60A1     7.122179    61A1     7.554948  
      45B1     7.850298    62A1     7.850298    35B2     8.021708  
      63A1     9.031935    46B1     9.031936    64A1    11.942790  
      47B1    11.951443    23A2    11.955559    36B2    11.955559  
      37B2    11.967236    24A2    11.967236    48B1    11.967267  
      65A1    11.967267    25A2    11.967761    66A1    11.972224  
      38B2    11.972429    39B2    11.973863    26A2    11.973863  
      67A1    11.978921    49B1    11.978921    27A2    11.989252  
      40B2    11.989252    28A2    11.989448    50B1    11.991531  
      68A1    11.991532    41B2    11.999279    69A1    12.016378  
      51B1    12.016378    52B1    12.017058    70A1    12.030299  
      53B1    12.063616    71A1    12.063616    72A1    13.709938  
      54B1    15.240405    29A2    15.241513    42B2    15.241513  
      43B2    15.275561    55B1    15.276206    73A1    15.276206  
      30A2    15.322593    44B2    15.322593    56B1    15.386228  
      74A1    15.386228    75A1    15.388939    31A2    15.506615  
      45B2    15.534869    32A2    15.534869    76A1    15.544775  
      46B2    15.554972    57B1    15.555752    77A1    15.555752  
      78A1    15.691151    58B1    15.691151    59B1    15.756153  
      79A1    16.335204    60B1    16.335205    80A1    16.361696  
      33A2    16.591929    47B2    16.591929    34A2    16.647974  
      61B1    16.653321    81A1    16.653321    82A1    16.688224  
      48B2    16.942846    35A2    16.942846    49B2    16.942896  
      62B1    17.021672    83A1    17.075818    63B1    17.075818  
      84A1    17.169557    85A1    17.293170    64B1    17.293170  
      86A1    47.518799    87A1    55.682519    88A1    55.714768  
      65B1    55.714768    89A1   258.247005    90A1   288.560484  
      91A1   288.604168    66B1   288.604169  

    Final Occupation by Irrep:
             A1    A2    B1    B2 
    DOCC [    10,    1,    6,    3 ]
    NA   [    10,    1,    6,    3 ]
    NB   [    10,    1,    6,    3 ]

  @RHF Final Energy:  -540.64132461008376

   => Energetics <=

    Nuclear Repulsion Energy =            159.3260200222588878
    One-Electron Energy =               -1074.1326032955798837
    Two-Electron Energy =                 374.1652586632371822
    Total Energy =                       -540.6413246100837569

Computation Completed


Properties will be evaluated at   0.000000,   0.000000,   0.000000 [a0]

Properties computed using the SCF density matrix


 Multipole Moments:

 ------------------------------------------------------------------------------------
     Multipole            Electronic (a.u.)      Nuclear  (a.u.)        Total (a.u.)
 ------------------------------------------------------------------------------------

 L = 1.  Multiply by 2.5417464519 to convert [e a0] to [Debye]
 Dipole X            :          0.0000000            0.0000000            0.0000000
 Dipole Y            :          0.0000000            0.0000000            0.0000000
 Dipole Z            :         -0.0000003           -0.0000000           -0.0000003
 Magnitude           :                                                    0.0000003

 ------------------------------------------------------------------------------------

*** tstop() called on nh009 at Thu Jun  5 17:49:54 2025
Module time:
	user time   =      62.85 seconds =       1.05 minutes
	system time =       1.46 seconds =       0.02 minutes
	total time  =         26 seconds =       0.43 minutes
Total time:
	user time   =      62.85 seconds =       1.05 minutes
	system time =       1.46 seconds =       0.02 minutes
	total time  =         26 seconds =       0.43 minutes
 MINTS: Wrapper to libmints.
   by Justin Turney

   Calculation information:
      Number of threads:                10
      Number of atoms:                   4
      Number of AO shells:              73
      Number of SO shells:              56
      Number of primitives:            128
      Number of atomic orbitals:       302
      Number of basis functions:       241

      Number of irreps:                  4
      Integral cutoff                 1.00e-12
      Number of functions per irrep: [  91   35   66   49 ]

 OEINTS: Overlap, kinetic, potential, dipole, and quadrupole integrals
         stored in file 35.

      Computing two-electron integrals...done
      Computed 80964482 non-zero two-electron integrals.
        Stored in file 33.


         ---------------------------------------------------------
                          Configuration Interaction
                            (a 'D E T C I' module)

                 C. David Sherrill, Daniel G. A. Smith, and
                              Matt L. Leininger
         ---------------------------------------------------------


   ==> Parameters <==

    EX LEVEL       =        2      H0 BLOCKSIZE  =     1000
    VAL EX LEVEL   =        0      H0 GUESS SIZE =     1000
    H0COUPLINGSIZE =        0      H0 COUPLING   =       NO
    MAXITER        =       24      NUM PRINT     =       20
    NUM ROOTS      =        1      ICORE         =        1
    PRINT LVL      =        1      FCI           =       NO
    R CONV         = 1.00e-04      MIXED         =      YES
    E CONV         = 1.00e-06      MIXED4        =      YES
    R4S            =       NO      REPL OTF      =       NO
    DIAG METHOD    =      SEM      FOLLOW ROOT   =        0
    PRECONDITIONER = DAVIDSON      UPDATE        = DAVIDSON
    S              =   0.0000      Ms0           =      YES
    GUESS VECTOR   =  H0BLOCK      OPENTYPE      =     NONE
    COLLAPSE SIZE  =        1      HD AVG        = EVANGELISTI
    MAX NUM VECS   =       25      REF SYM       =     AUTO
    IOPEN        =       NO

    EX ALLOW       =  1  1 
    STATE AVERAGE  =  0(1.00) 

   ==> CI Orbital and Space information <==

    RAS1 LVL      =       19      A RAS3 MAX    =        2
    RAS1 MIN      =       38      B RAS3 MAX    =        2
    A RAS1 LVL    =       19      RAS4 LVL      =      241
    A RAS1 MIN    =       18      A RAS4 MAX    =        0
    A RAS1 MAX    =       20      B RAS4 MAX    =        0
    B RAS1 LVL    =       19      RAS4 MAX      =        0
    B RAS1 MIN    =       18      A RAS34 MAX   =        2
    B RAS1 MAX    =       20      B RAS34 MAX   =        2
    RAS3 LVL      =       20      RAS34 MAX     =        2
    RAS3 MAX      =        2
   ------------------------------------------------------
               Space    Total    A1    A2    B1    B2
   ------------------------------------------------------
                 Nso      241    91    35    66    49
                 Nmo      241    91    35    66    49
               Ndocc       20    10     1     6     3
               Nsocc        0     0     0     0     0
   ------------------------------------------------------
                       CI Spaces
   ------------------------------------------------------
        Dropped DOCC        0     0     0     0     0
                RAS1       20    10     1     6     3
                RAS2        0     0     0     0     0
                RAS3      221    81    34    60    46
                RAS4        0     0     0     0     0
      Active (total)      241    91    35    66    49
        Dropped UOCC        0     0     0     0     0
   ------------------------------------------------------

   ==> Setting up CI strings <==

    There are 4623321 alpha and 4623321 beta strings
    The CI space requires 7396339 (7.40E+06) determinants and 9 blocks

   ==> Transforming CI integrals <==

	Presorting SO-basis two-electron integrals.
	Sorting File: SO Ints (nn|nn) nbuckets = 1
	Constructing frozen core operators
	Starting first half-transformation.
	Sorting half-transformed integrals.
	First half integral transformation complete.
	Starting second half-transformation.
	Two-electron integral transformation complete.

   ==> Starting CI iterations <==

    H0 Block Eigenvalue = -540.64361312

    Simultaneous Expansion Method (Block Davidson Method)
    Using 1 initial trial vectors

     Iter   Root       Total Energy       Delta E      C RMS

   @CI  0:     0   -540.643613124192   -6.9997E+02   5.0938E+00  
   @CI  1:     0   -541.640940015085   -9.9733E-01   7.1969E-01  
   @CI  2:     0   -541.665461049738   -2.4521E-02   5.7601E-02  
   @CI  3:     0   -541.665937229771   -4.7618E-04   1.5316E-02  
