
    -----------------------------------------------------------------------
          Psi4: An Open-Source Ab Initio Electronic Structure Package
                               Psi4 1.9.1 release

                         Git: Rev {} zzzzzzz 


    D. G. A. Smith, L. A. Burns, A. C. Simmonett, R. M. Parrish,
    M. C. Schieber, R. Galvelis, P. Kraus, H. Kruse, R. Di Remigio,
    A. Alenaizan, A. M. James, S. Lehtola, J. P. Misiewicz, M. Scheurer,
    R. A. Shaw, J. B. Schriber, Y. Xie, Z. L. Glick, D. A. Sirianni,
    J. S. O'Brien, J. M. Waldrop, A. Kumar, E. G. Hohenstein,
    B. P. Pritchard, B. R. Brooks, H. F. Schaefer III, A. Yu. Sokolov,
    K. Patkowski, A. E. DePrince III, U. Bozkaya, R. A. King,
    F. A. Evangelista, J. M. Turney, T. D. Crawford, C. D. Sherrill,
    J. Chem. Phys. 152(18) 184108 (2020). https://doi.org/10.1063/5.0006002

                            Additional Code Authors
    E. T. Seidl, C. L. Janssen, E. F. Valeev, M. L. Leininger,
    J. F. Gonthier, R. M. Richard, H. R. McAlexander, M. Saitow, X. Wang,
    P. Verma, M. H. Lechner, A. Jiang, S. Behnle, A. G. Heide,
    M. F. Herbst, and D. L. Poole

             Previous Authors, Complete List of Code Contributors,
                       and Citations for Specific Modules
    https://github.com/psi4/psi4/blob/master/codemeta.json
    https://github.com/psi4/psi4/graphs/contributors
    http://psicode.org/psi4manual/master/introduction.html#citing-psifour

    -----------------------------------------------------------------------


    Psi4 started on: Thursday, 05 June 2025 05:49PM

    Process ID: 575576
    Host:       nh002
    PSIDATADIR: /software-nas/eb2024/easybuild/software/rocky/8.9/intel/cascadelake/software/PSI4/1.9.1-foss-2023b/share/psi4
    Memory:     500.0 MiB
    Threads:    10
    
  ==> Input File <==

--------------------------------------------------------------------------
memory 60Gb

molecule{
0 1
F     0.555710  1.384434  -0.493986
O     0.555710  0.268181  0.555734
O     -0.555710  -0.268181  0.555734
F     -0.555710  -1.384434  -0.493986
}

set reference rhf
set nat_orbs true
set qc_module detci
set dipmom true

energy("CISD/def2-QZVP")
--------------------------------------------------------------------------

  Memory set to  55.879 GiB by Python driver.

Scratch directory: /scratch/pobleyef/203647/
   => Libint2 <=

    Primary   basis highest AM E, G, H:  5, 4, 3
    Auxiliary basis highest AM E, G, H:  6, 5, 4
    Onebody   basis highest AM E, G, H:  6, 5, 4
    Solid Harmonics ordering:            Gaussian

*** tstart() called on nh002
*** at Thu Jun  5 17:49:29 2025

   => Loading Basis Set <=

    Name: DEF2-QZVP
    Role: ORBITAL
    Keyword: BASIS
    atoms 1, 4 entry F          line   338 file /software-nas/eb2024/easybuild/software/rocky/8.9/intel/cascadelake/software/PSI4/1.9.1-foss-2023b/share/psi4/basis/def2-qzvp.gbs 
    atoms 2-3  entry O          line   290 file /software-nas/eb2024/easybuild/software/rocky/8.9/intel/cascadelake/software/PSI4/1.9.1-foss-2023b/share/psi4/basis/def2-qzvp.gbs 


         ---------------------------------------------------------
                                   SCF
               by Justin Turney, Rob Parrish, Andy Simmonett
                          and Daniel G. A. Smith
                              RHF Reference
                       10 Threads,  57220 MiB Core
         ---------------------------------------------------------

  ==> Geometry <==

    Molecular point group: c2
    Full point group: C2

    Geometry (in Angstrom), charge = 0, multiplicity = 1:

       Center              X                  Y                   Z               Mass       
    ------------   -----------------  -----------------  -----------------  -----------------
         F            0.555710000000     1.384434000000    -0.479811085045    18.998403162730
         O            0.555710000000     0.268181000000     0.569908914955    15.994914619570
         O           -0.555710000000    -0.268181000000     0.569908914955    15.994914619570
         F           -0.555710000000    -1.384434000000    -0.479811085045    18.998403162730

  Running in c2 symmetry.

  Rotational constants: A =      0.69540  B =      0.17426  C =      0.15218 [cm^-1]
  Rotational constants: A =  20847.44498  B =   5224.07233  C =   4562.24652 [MHz]
  Nuclear repulsion =  125.388048997643153

  Charge       = 0
  Multiplicity = 1
  Electrons    = 34
  Nalpha       = 17
  Nbeta        = 17

  ==> Algorithm <==

  SCF Algorithm Type is PK.
  DIIS enabled.
  MOM disabled.
  Fractional occupation disabled.
  Guess Type is SAD.
  Energy threshold   = 1.00e-08
  Density threshold  = 1.00e-08
  Integral threshold = 1.00e-12

  ==> Primary Basis <==

  Basis Set: DEF2-QZVP
    Blend: DEF2-QZVP
    Number of shells: 68
    Number of basis functions: 228
    Number of Cartesian functions: 288
    Spherical Harmonics?: true
    Max angular momentum: 4

  ==> Integral Setup <==

  Using in-core PK algorithm.
   Calculation information:
      Number of atoms:                   4
      Number of AO shells:              68
      Number of primitives:            116
      Number of atomic orbitals:       288
      Number of basis functions:       228

      Integral cutoff                 1.00e-12
      Number of threads:                10

  Performing in-core PK
  Using 681549342 doubles for integral storage.
  We computed 2828559 shell quartets total.
  Whereas there are 2753031 unique shell quartets.
     2.74 percent of shell quartets recomputed by reordering.

  ==> DiskJK: Disk-Based J/K Matrices <==

    J tasked:                  Yes
    K tasked:                  Yes
    wK tasked:                  No
    Memory [MiB]:            42915
    Schwarz Cutoff:          1E-12

    OpenMP threads:             10

  Minimum eigenvalue in the overlap matrix is 6.7962332336E-04.
  Reciprocal condition number of the overlap matrix is 1.2568042066E-04.
    Using symmetric orthogonalization.

  ==> Pre-Iterations <==

  SCF Guess: Superposition of Atomic Densities via on-the-fly atomic UHF (no occupation information).

   -------------------------
    Irrep   Nso     Nmo    
   -------------------------
     A        114     114 
     B        114     114 
   -------------------------
    Total     228     228
   -------------------------

  ==> Iterations <==

                        Total Energy        Delta E     RMS |[F,P]|

   @RHF iter SAD:  -347.26992259017840   -3.47270e+02   0.00000e+00 
   @RHF iter   1:  -348.12050499466500   -8.50582e-01   4.45705e-03 ADIIS/DIIS
   @RHF iter   2:  -348.13640648197600   -1.59015e-02   5.33456e-03 ADIIS/DIIS
   @RHF iter   3:  -348.35602341514186   -2.19617e-01   5.13848e-04 ADIIS/DIIS
   @RHF iter   4:  -348.36465896558389   -8.63555e-03   2.75339e-04 ADIIS/DIIS
   @RHF iter   5:  -348.36715164258192   -2.49268e-03   8.52416e-05 DIIS
   @RHF iter   6:  -348.36749526500518   -3.43622e-04   1.92654e-05 DIIS
   @RHF iter   7:  -348.36750867784917   -1.34128e-05   8.10203e-06 DIIS
   @RHF iter   8:  -348.36751165362193   -2.97577e-06   3.24718e-06 DIIS
   @RHF iter   9:  -348.36751231877315   -6.65151e-07   1.19831e-06 DIIS
   @RHF iter  10:  -348.36751242406376   -1.05291e-07   3.62635e-07 DIIS
   @RHF iter  11:  -348.36751243121228   -7.14851e-09   1.24066e-07 DIIS
   @RHF iter  12:  -348.36751243205816   -8.45887e-10   5.48086e-08 DIIS
   @RHF iter  13:  -348.36751243224336   -1.85196e-10   1.90901e-08 DIIS
   @RHF iter  14:  -348.36751243226820   -2.48406e-11   7.98477e-09 DIIS
  Energy and wave function converged.


  ==> Post-Iterations <==

    Orbital Energies [Eh]
    ---------------------

    Doubly Occupied:                                                      

       1B    -26.370878     1A    -26.370878     2A    -20.844488  
       2B    -20.843673     3A     -1.768274     3B     -1.620989  
       4A     -1.553072     4B     -1.188013     5A     -0.844780  
       5B     -0.836656     6A     -0.832426     7A     -0.702895  
       6B     -0.698860     7B     -0.684190     8A     -0.671425  
       8B     -0.578551     9A     -0.574627  

    Virtual:                                                              

       9B      0.053673    10A      0.057483    10B      0.248454  
      11A      0.309644    11B      0.322849    12A      0.373855  
      12B      0.415769    13A      0.421174    13B      0.432658  
      14A      0.441031    15A      0.454949    14B      0.470179  
      16A      0.522268    15B      0.548738    16B      0.580636  
      17A      0.625137    17B      0.749647    18B      1.021802  
      18A      1.032033    19A      1.132305    19B      1.156875  
      20A      1.161488    20B      1.315937    21B      1.334818  
      21A      1.379685    22B      1.438361    22A      1.466503  
      23B      1.500844    23A      1.519666    24A      1.544325  
      24B      1.597886    25A      1.602927    25B      1.698924  
      26B      1.745835    26A      1.815709    27B      1.848824  
      27A      1.859863    28A      1.877487    29A      1.888896  
      28B      1.898323    29B      1.946371    30A      1.952276  
      30B      1.980531    31B      2.036237    31A      2.057701  
      32B      2.126682    32A      2.163469    33B      2.229733  
      33A      2.409416    34A      2.690179    34B      2.705046  
      35A      3.122727    35B      3.148312    36A      3.150900  
      37A      3.334098    36B      3.384878    37B      3.472580  
      38A      3.510780    38B      3.564329    39A      3.591002  
      40A      3.749164    39B      3.863955    41A      3.946735  
      40B      3.980024    41B      4.052219    42A      4.057695  
      43A      4.111871    42B      4.226630    44A      4.246219  
      43B      4.271919    44B      4.300086    45A      4.361481  
      45B      4.390964    46B      4.460350    46A      4.512292  
      47A      4.517188    47B      4.523305    48A      4.544025  
      48B      4.563786    49B      4.647084    49A      4.659060  
      50A      4.710145    50B      4.817403    51B      4.863194  
      51A      4.886046    52B      4.951813    52A      4.995774  
      53A      5.091531    53B      5.114432    54B      5.157936  
      54A      5.221235    55B      5.266745    55A      5.291479  
      56A      5.396223    57A      5.414334    56B      5.420809  
      57B      5.490613    58A      5.602182    58B      5.699818  
      59A      5.734756    59B      5.809113    60A      5.827733  
      60B      5.846132    61B      5.926810    61A      5.942940  
      62A      6.003489    63A      6.727094    62B      6.730238  
      64A      6.754533    63B      6.759126    64B      6.764099  
      65A      6.834383    65B      7.175102    66A      7.301829  
      66B      8.083056    67A      8.538918    67B      8.687885  
      68A      8.893635    68B      8.946993    69A      8.961122  
      69B      8.985032    70A      9.204473    70B      9.260518  
      71A      9.349938    72A      9.384476    71B      9.433400  
      72B      9.703368    73A      9.748251    74A     10.607625  
      73B     10.609838    74B     10.844058    75B     10.992533  
      75A     10.992707    76A     11.323709    76B     11.367146  
      77A     11.458397    77B     11.464196    78B     11.621704  
      78A     11.624252    79B     11.677144    80B     11.705847  
      79A     11.731093    80A     11.763431    81B     11.899883  
      81A     11.901134    82A     11.914467    82B     11.916067  
      83B     11.927462    83A     11.947414    84B     11.950575  
      84A     11.950671    85B     11.950793    85A     11.952102  
      86B     12.021011    86A     12.035313    87B     12.076818  
      87A     12.090800    88A     12.110918    88B     12.139309  
      89A     12.289918    90A     12.352500    89B     12.353535  
      90B     12.414654    91B     12.421787    91A     12.449259  
      92A     12.470857    92B     12.575808    93A     12.584814  
      93B     12.702810    94A     12.771056    94B     12.894857  
      95A     13.101091    95B     14.152685    96A     14.204485  
      96B     14.259704    97A     14.621664    97B     15.202697  
      98A     15.202857    99A     15.205499    98B     15.212084  
     100A     15.240037    99B     15.248716   100B     15.261098  
     101A     15.266047   102A     15.401958   101B     15.480084  
     103A     15.595777   102B     15.600890   103B     15.657258  
     104A     15.698949   104B     15.996639   105A     16.444509  
     105B     16.448536   106A     16.463381   106B     16.488017  
     107B     16.591820   107A     16.593677   108B     16.618666  
     108A     16.653048   109B     16.655836   109A     16.733479  
     110A     17.148056   110B     17.174387   111A     48.541416  
     111B     49.126304   112A     55.355470   112B     55.458068  
     113A    255.328224   113B    255.963779   114A    288.158696  
     114B    288.290679  

    Final Occupation by Irrep:
              A     B 
    DOCC [     9,    8 ]
    NA   [     9,    8 ]
    NB   [     9,    8 ]

  @RHF Final Energy:  -348.36751243226820

   => Energetics <=

    Nuclear Repulsion Energy =            125.3880489976431534
    One-Electron Energy =                -733.5417742971389998
    Two-Electron Energy =                 259.7862128672276185
    Total Energy =                       -348.3675124322681995

Computation Completed


Properties will be evaluated at   0.000000,   0.000000,   0.000000 [a0]

Properties computed using the SCF density matrix


 Multipole Moments:

 ------------------------------------------------------------------------------------
     Multipole            Electronic (a.u.)      Nuclear  (a.u.)        Total (a.u.)
 ------------------------------------------------------------------------------------

 L = 1.  Multiply by 2.5417464519 to convert [e a0] to [Debye]
 Dipole X            :          0.0000000            0.0000000            0.0000000
 Dipole Y            :          0.0000000            0.0000000            0.0000000
 Dipole Z            :         -0.3992177            0.9107405            0.5115228
 Magnitude           :                                                    0.5115228

 ------------------------------------------------------------------------------------

*** tstop() called on nh002 at Thu Jun  5 17:49:59 2025
Module time:
	user time   =      67.40 seconds =       1.12 minutes
	system time =       2.59 seconds =       0.04 minutes
	total time  =         30 seconds =       0.50 minutes
Total time:
	user time   =      67.40 seconds =       1.12 minutes
	system time =       2.59 seconds =       0.04 minutes
	total time  =         30 seconds =       0.50 minutes
 MINTS: Wrapper to libmints.
   by Justin Turney

   Calculation information:
      Number of threads:                10
      Number of atoms:                   4
      Number of AO shells:              68
      Number of SO shells:              34
      Number of primitives:            116
      Number of atomic orbitals:       288
      Number of basis functions:       228

      Number of irreps:                  2
      Integral cutoff                 1.00e-12
      Number of functions per irrep: [ 114  114 ]

 OEINTS: Overlap, kinetic, potential, dipole, and quadrupole integrals
         stored in file 35.

      Computing two-electron integrals...done
      Computed 155715545 non-zero two-electron integrals.
        Stored in file 33.


         ---------------------------------------------------------
                          Configuration Interaction
                            (a 'D E T C I' module)

                 C. David Sherrill, Daniel G. A. Smith, and
                              Matt L. Leininger
         ---------------------------------------------------------


   ==> Parameters <==

    EX LEVEL       =        2      H0 BLOCKSIZE  =     1000
    VAL EX LEVEL   =        0      H0 GUESS SIZE =     1000
    H0COUPLINGSIZE =        0      H0 COUPLING   =       NO
    MAXITER        =       24      NUM PRINT     =       20
    NUM ROOTS      =        1      ICORE         =        1
    PRINT LVL      =        1      FCI           =       NO
    R CONV         = 1.00e-04      MIXED         =      YES
    E CONV         = 1.00e-06      MIXED4        =      YES
    R4S            =       NO      REPL OTF      =       NO
    DIAG METHOD    =      SEM      FOLLOW ROOT   =        0
    PRECONDITIONER = DAVIDSON      UPDATE        = DAVIDSON
    S              =   0.0000      Ms0           =      YES
    GUESS VECTOR   =  H0BLOCK      OPENTYPE      =     NONE
    COLLAPSE SIZE  =        1      HD AVG        = EVANGELISTI
    MAX NUM VECS   =       25      REF SYM       =     AUTO
    IOPEN        =       NO

    EX ALLOW       =  1  1 
    STATE AVERAGE  =  0(1.00) 

   ==> CI Orbital and Space information <==

    RAS1 LVL      =       16      A RAS3 MAX    =        2
    RAS1 MIN      =       32      B RAS3 MAX    =        2
    A RAS1 LVL    =       16      RAS4 LVL      =      228
    A RAS1 MIN    =       15      A RAS4 MAX    =        0
    A RAS1 MAX    =       17      B RAS4 MAX    =        0
    B RAS1 LVL    =       16      RAS4 MAX      =        0
    B RAS1 MIN    =       15      A RAS34 MAX   =        2
    B RAS1 MAX    =       17      B RAS34 MAX   =        2
    RAS3 LVL      =       17      RAS34 MAX     =        2
    RAS3 MAX      =        2
   ------------------------------------------
               Space    Total     A     B
   ------------------------------------------
                 Nso      228   114   114
                 Nmo      228   114   114
               Ndocc       17     9     8
               Nsocc        0     0     0
   ------------------------------------------
                 CI Spaces
   ------------------------------------------
        Dropped DOCC        0     0     0
                RAS1       17     9     8
                RAS2        0     0     0
                RAS3      211   105   106
                RAS4        0     0     0
      Active (total)      228   114   114
        Dropped UOCC        0     0     0
   ------------------------------------------

   ==> Setting up CI strings <==

    There are 3016668 alpha and 3016668 beta strings
    The CI space requires 9450792 (9.45E+06) determinants and 7 blocks

   ==> Transforming CI integrals <==

	Presorting SO-basis two-electron integrals.
	Sorting File: SO Ints (nn|nn) nbuckets = 1
	Constructing frozen core operators
	Starting first half-transformation.
	Sorting half-transformed integrals.
	First half integral transformation complete.
	Starting second half-transformation.
	Two-electron integral transformation complete.

   ==> Starting CI iterations <==

    H0 Block Eigenvalue = -348.46772394

    Simultaneous Expansion Method (Block Davidson Method)
    Using 1 initial trial vectors

     Iter   Root       Total Energy       Delta E      C RMS

   @CI  0:     0   -348.467723942420   -4.7386E+02   4.2058E+00  
   @CI  1:     0   -349.310142122656   -8.4242E-01   6.7074E-01  
   @CI  2:     0   -349.380739415311   -7.0597E-02   1.3666E-01  
