
    -----------------------------------------------------------------------
          Psi4: An Open-Source Ab Initio Electronic Structure Package
                               Psi4 1.9.1 release

                         Git: Rev {} zzzzzzz 


    D. G. A. Smith, L. A. Burns, A. C. Simmonett, R. M. Parrish,
    M. C. Schieber, R. Galvelis, P. Kraus, H. Kruse, R. Di Remigio,
    A. Alenaizan, A. M. James, S. Lehtola, J. P. Misiewicz, M. Scheurer,
    R. A. Shaw, J. B. Schriber, Y. Xie, Z. L. Glick, D. A. Sirianni,
    J. S. O'Brien, J. M. Waldrop, A. Kumar, E. G. Hohenstein,
    B. P. Pritchard, B. R. Brooks, H. F. Schaefer III, A. Yu. Sokolov,
    K. Patkowski, A. E. DePrince III, U. Bozkaya, R. A. King,
    F. A. Evangelista, J. M. Turney, T. D. Crawford, C. D. Sherrill,
    J. Chem. Phys. 152(18) 184108 (2020). https://doi.org/10.1063/5.0006002

                            Additional Code Authors
    E. T. Seidl, C. L. Janssen, E. F. Valeev, M. L. Leininger,
    J. F. Gonthier, R. M. Richard, H. R. McAlexander, M. Saitow, X. Wang,
    P. Verma, M. H. Lechner, A. Jiang, S. Behnle, A. G. Heide,
    M. F. Herbst, and D. L. Poole

             Previous Authors, Complete List of Code Contributors,
                       and Citations for Specific Modules
    https://github.com/psi4/psi4/blob/master/codemeta.json
    https://github.com/psi4/psi4/graphs/contributors
    http://psicode.org/psi4manual/master/introduction.html#citing-psifour

    -----------------------------------------------------------------------


    Psi4 started on: Thursday, 05 June 2025 05:49PM

    Process ID: 4041282
    Host:       na16
    PSIDATADIR: /software-nas/eb2024/easybuild/software/rocky/8.9/amd/zen4/software/PSI4/1.9.1-foss-2023b/share/psi4
    Memory:     500.0 MiB
    Threads:    10
    
  ==> Input File <==

--------------------------------------------------------------------------
memory 60Gb

molecule{
0 2
O     1.174393  0.194313  0.000000
O     0.000000  0.553180  0.000000
O     -0.950471  -0.717715  0.000000
H     -1.791374  -0.238229  0.000000
}

set reference rohf
set nat_orbs true
set qc_module detci
set dipmom true

energy("CISD/def2-QZVP")
--------------------------------------------------------------------------

  Memory set to  55.879 GiB by Python driver.

Scratch directory: /scratch/pobleyef/203641/
   => Libint2 <=

    Primary   basis highest AM E, G, H:  5, 4, 3
    Auxiliary basis highest AM E, G, H:  6, 5, 4
    Onebody   basis highest AM E, G, H:  6, 5, 4
    Solid Harmonics ordering:            Gaussian

*** tstart() called on na16
*** at Thu Jun  5 17:49:29 2025

   => Loading Basis Set <=

    Name: DEF2-QZVP
    Role: ORBITAL
    Keyword: BASIS
    atoms 1-3 entry O          line   290 file /software-nas/eb2024/easybuild/software/rocky/8.9/amd/zen4/software/PSI4/1.9.1-foss-2023b/share/psi4/basis/def2-qzvp.gbs 
    atoms 4   entry H          line    15 file /software-nas/eb2024/easybuild/software/rocky/8.9/amd/zen4/software/PSI4/1.9.1-foss-2023b/share/psi4/basis/def2-qzvp.gbs 


         ---------------------------------------------------------
                                   SCF
               by Justin Turney, Rob Parrish, Andy Simmonett
                          and Daniel G. A. Smith
                             ROHF Reference
                       10 Threads,  57220 MiB Core
         ---------------------------------------------------------

  ==> Geometry <==

    Molecular point group: cs
    Full point group: Cs

    Geometry (in Angstrom), charge = 0, multiplicity = 2:

       Center              X                  Y                   Z               Mass       
    ------------   -----------------  -----------------  -----------------  -----------------
         O            1.138138079052     0.189491790921     0.000000000000    15.994914619570
         O           -0.036254920948     0.548358790921     0.000000000000    15.994914619570
         O           -0.986725920948    -0.722536209079     0.000000000000    15.994914619570
         H           -1.827628920948    -0.243050209079     0.000000000000     1.007825032230

  Running in cs symmetry.

  Rotational constants: A =      2.42988  B =      0.36225  C =      0.31525 [cm^-1]
  Rotational constants: A =  72845.95474  B =  10860.01180  C =   9451.03391 [MHz]
  Nuclear repulsion =   71.513709540486090

  Charge       = 0
  Multiplicity = 2
  Electrons    = 25
  Nalpha       = 13
  Nbeta        = 12

  ==> Algorithm <==

  SCF Algorithm Type is PK.
  DIIS enabled.
  MOM disabled.
  Fractional occupation disabled.
  Guess Type is SAD.
  Energy threshold   = 1.00e-08
  Density threshold  = 1.00e-08
  Integral threshold = 1.00e-12

  ==> Primary Basis <==

  Basis Set: DEF2-QZVP
    Blend: DEF2-QZVP
    Number of shells: 61
    Number of basis functions: 201
    Number of Cartesian functions: 251
    Spherical Harmonics?: true
    Max angular momentum: 4

  ==> Integral Setup <==

  Using in-core PK algorithm.
   Calculation information:
      Number of atoms:                   4
      Number of AO shells:              61
      Number of primitives:            100
      Number of atomic orbitals:       251
      Number of basis functions:       201

      Integral cutoff                 1.00e-12
      Number of threads:                10

  Performing in-core PK
  Using 412150902 doubles for integral storage.
  We computed 2100009 shell quartets total.
  Whereas there are 1788886 unique shell quartets.
    17.39 percent of shell quartets recomputed by reordering.

  ==> DiskJK: Disk-Based J/K Matrices <==

    J tasked:                  Yes
    K tasked:                  Yes
    wK tasked:                  No
    Memory [MiB]:            42915
    Schwarz Cutoff:          1E-12

    OpenMP threads:             10

  Minimum eigenvalue in the overlap matrix is 3.6440074823E-04.
  Reciprocal condition number of the overlap matrix is 5.8053927724E-05.
    Using symmetric orthogonalization.

  ==> Pre-Iterations <==

  SCF Guess: Superposition of Atomic Densities via on-the-fly atomic UHF (no occupation information).

   -------------------------
    Irrep   Nso     Nmo    
   -------------------------
     A'       131     131 
     A"        70      70 
   -------------------------
    Total     201     201
   -------------------------

  ==> Iterations <==

                        Total Energy        Delta E     RMS |[F,P]|

   @ROHF iter SAD:  -223.94250066741790   -2.23943e+02   0.00000e+00 
   @ROHF iter   1:  -224.87361999293893   -9.31119e-01   2.84745e-03 DIIS
   @ROHF iter   2:  -224.89900961950150   -2.53896e-02   3.04039e-03 DIIS
   @ROHF iter   3:  -225.01514082884188   -1.16131e-01   3.30736e-04 DIIS
   @ROHF iter   4:  -225.02162532583156   -6.48450e-03   2.69667e-04 DIIS
   @ROHF iter   5:  -225.02534985345932   -3.72453e-03   1.79572e-04 DIIS
   @ROHF iter   6:  -225.02794068795038   -2.59083e-03   1.23181e-04 DIIS
   @ROHF iter   7:  -225.02875375095869   -8.13063e-04   2.94060e-05 DIIS
   @ROHF iter   8:  -225.02878643399356   -3.26830e-05   1.36452e-05 DIIS
   @ROHF iter   9:  -225.02880321448430   -1.67805e-05   3.98916e-06 DIIS
   @ROHF iter  10:  -225.02880446101545   -1.24653e-06   1.39360e-06 DIIS
   @ROHF iter  11:  -225.02880454104223   -8.00268e-08   4.93963e-07 DIIS
   @ROHF iter  12:  -225.02880456022319   -1.91810e-08   1.26606e-07 DIIS
   @ROHF iter  13:  -225.02880456131641   -1.09321e-09   5.48578e-08 DIIS
   @ROHF iter  14:  -225.02880456145766   -1.41256e-10   1.48644e-08 DIIS
   @ROHF iter  15:  -225.02880456147392   -1.62572e-11   4.51407e-09 DIIS
  Energy and wave function converged.


  ==> Post-Iterations <==

    Orbital Energies [Eh]
    ---------------------

    Doubly Occupied:                                                      

       1Ap   -20.755333     2Ap   -20.694335     3Ap   -20.652086  
       4Ap    -1.645535     5Ap    -1.365928     6Ap    -1.095411  
       7Ap    -0.762002     8Ap    -0.735756     1App   -0.717144  
       9Ap    -0.647224     2App   -0.546270    10Ap    -0.479899  

    Singly Occupied:                                                      

       3App   -0.213198  

    Virtual:                                                              

      11Ap     0.098262    12Ap     0.127474    13Ap     0.268733  
      14Ap     0.319180     4App    0.341157    15Ap     0.369538  
      16Ap     0.387740     5App    0.410505    17Ap     0.438120  
       6App    0.443093    18Ap     0.455621    19Ap     0.480599  
      20Ap     0.555144     7App    0.670831    21Ap     0.703410  
      22Ap     0.792572    23Ap     0.858001    24Ap     0.907747  
       8App    1.026800    25Ap     1.054483    26Ap     1.126969  
      27Ap     1.188462     9App    1.214044    28Ap     1.324987  
      10App    1.329694    29Ap     1.418924    30Ap     1.442634  
      11App    1.480453    31Ap     1.506256    12App    1.522227  
      32Ap     1.548100    13App    1.561613    33Ap     1.571411  
      14App    1.592067    34Ap     1.593321    35Ap     1.775025  
      36Ap     1.787472    15App    1.842869    16App    1.908461  
      37Ap     2.003291    38Ap     2.052220    39Ap     2.126970  
      40Ap     2.203274    17App    2.274024    41Ap     2.320482  
      18App    2.412769    42Ap     2.434104    43Ap     2.625144  
      44Ap     2.762591    19App    2.805764    45Ap     2.936569  
      46Ap     3.110714    20App    3.118995    21App    3.146868  
      47Ap     3.196614    48Ap     3.216566    22App    3.333788  
      49Ap     3.342016    50Ap     3.444198    23App    3.448206  
      51Ap     3.534934    52Ap     3.581028    24App    3.719025  
      53Ap     3.793160    54Ap     3.870658    55Ap     4.017721  
      25App    4.060519    26App    4.077558    56Ap     4.104948  
      57Ap     4.143842    27App    4.212025    28App    4.226795  
      29App    4.280809    58Ap     4.304187    59Ap     4.360373  
      30App    4.417098    31App    4.426102    60Ap     4.449471  
      61Ap     4.450300    62Ap     4.513412    63Ap     4.591970  
      32App    4.645097    64Ap     4.747348    33App    4.787774  
      65Ap     4.837719    66Ap     4.901190    34App    4.953809  
      67Ap     4.954531    68Ap     5.028234    69Ap     5.275066  
      35App    5.335513    70Ap     5.368419    71Ap     5.466110  
      36App    5.558467    72Ap     5.689260    73Ap     5.818122  
      37App    5.900433    74Ap     6.059542    38App    6.095340  
      75Ap     6.200464    76Ap     6.296057    39App    6.814104  
      77Ap     6.926303    40App    7.465917    78Ap     7.489111  
      79Ap     7.608218    80Ap     7.690959    41App    8.029387  
      42App    8.105310    81Ap     8.184407    82Ap     8.197443  
      83Ap     8.301782    43App    8.601679    84Ap     8.641980  
      44App    8.769856    85Ap     8.789768    86Ap     8.930068  
      45App    8.944514    87Ap     8.959797    46App    8.992700  
      47App    9.028365    88Ap     9.106698    89Ap     9.179691  
      90Ap     9.273532    48App    9.274028    91Ap     9.314067  
      49App    9.445622    92Ap     9.522838    50App    9.699480  
      93Ap     9.785264    94Ap     9.933907    51App    9.996243  
      52App   10.566245    95Ap    10.587109    96Ap    10.729284  
      53App   10.754469    97Ap    10.879065    98Ap    11.002156  
      54App   11.109627    99Ap    11.218204    55App   11.253378  
      56App   11.366664   100Ap    11.388011   101Ap    11.423975  
      57App   11.438182   102Ap    11.517654    58App   11.533897  
     103Ap    11.565829    59App   11.671376   104Ap    11.782997  
     105Ap    11.830493   106Ap    11.885676    60App   11.924652  
      61App   11.975218   107Ap    11.991888   108Ap    12.064609  
     109Ap    12.170293    62App   12.177258    63App   12.181048  
     110Ap    12.212633   111Ap    12.315932    64App   12.365408  
      65App   12.444301    66App   12.470466   112Ap    12.510369  
     113Ap    12.621364   114Ap    12.639070    67App   12.639176  
      68App   12.693072   115Ap    12.723479   116Ap    12.839996  
     117Ap    13.221620   118Ap    13.315985   119Ap    14.201530  
      69App   14.292318    70App   14.305198   120Ap    14.332829  
     121Ap    14.376224   122Ap    14.526526   123Ap    14.979242  
     124Ap    16.180186   125Ap    17.071145   126Ap    48.523409  
     127Ap    49.094612   128Ap    49.293136   129Ap   255.277981  
     130Ap   255.901995   131Ap   256.132091  

    Final Occupation by Irrep:
             Ap   App 
    DOCC [    10,    2 ]
    SOCC [     0,    1 ]
    NA   [    10,    3 ]
    NB   [    10,    2 ]

  @ROHF Final Energy:  -225.02880456147392

   => Energetics <=

    Nuclear Repulsion Energy =             71.5137095404860901
    One-Electron Energy =                -452.3216476918787521
    Two-Electron Energy =                 155.7791335899187288
    Total Energy =                       -225.0288045614739190

Computation Completed


Properties will be evaluated at   0.000000,   0.000000,   0.000000 [a0]

Properties computed using the SCF density matrix


 Multipole Moments:

 ------------------------------------------------------------------------------------
     Multipole            Electronic (a.u.)      Nuclear  (a.u.)        Total (a.u.)
 ------------------------------------------------------------------------------------

 L = 1.  Multiply by 2.5417464519 to convert [e a0] to [Debye]
 Dipole X            :          1.0589660           -1.7127930           -0.6538270
 Dipole Y            :          0.5470820           -0.2277786            0.3193035
 Dipole Z            :          0.0000000            0.0000000            0.0000000
 Magnitude           :                                                    0.7276294

 ------------------------------------------------------------------------------------

*** tstop() called on na16 at Thu Jun  5 17:49:45 2025
Module time:
	user time   =      32.10 seconds =       0.54 minutes
	system time =       0.89 seconds =       0.01 minutes
	total time  =         16 seconds =       0.27 minutes
Total time:
	user time   =      32.10 seconds =       0.54 minutes
	system time =       0.89 seconds =       0.01 minutes
	total time  =         16 seconds =       0.27 minutes
 MINTS: Wrapper to libmints.
   by Justin Turney

   Calculation information:
      Number of threads:                10
      Number of atoms:                   4
      Number of AO shells:              61
      Number of SO shells:              61
      Number of primitives:            100
      Number of atomic orbitals:       251
      Number of basis functions:       201

      Number of irreps:                  2
      Integral cutoff                 1.00e-12
      Number of functions per irrep: [ 131   70 ]

 OEINTS: Overlap, kinetic, potential, dipole, and quadrupole integrals
         stored in file 35.

      Computing two-electron integrals...done
      Computed 92582837 non-zero two-electron integrals.
        Stored in file 33.


         ---------------------------------------------------------
                          Configuration Interaction
                            (a 'D E T C I' module)

                 C. David Sherrill, Daniel G. A. Smith, and
                              Matt L. Leininger
         ---------------------------------------------------------

Warning: iopen=0,opentype!=closed. Making iopen=1

   ==> Parameters <==

    EX LEVEL       =        2      H0 BLOCKSIZE  =     1000
    VAL EX LEVEL   =        0      H0 GUESS SIZE =     1000
    H0COUPLINGSIZE =        0      H0 COUPLING   =       NO
    MAXITER        =       24      NUM PRINT     =       20
    NUM ROOTS      =        1      ICORE         =        1
    PRINT LVL      =        1      FCI           =       NO
    R CONV         = 1.00e-04      MIXED         =      YES
    E CONV         = 1.00e-06      MIXED4        =      YES
    R4S            =       NO      REPL OTF      =       NO
    DIAG METHOD    =      SEM      FOLLOW ROOT   =        0
    PRECONDITIONER = DAVIDSON      UPDATE        = DAVIDSON
    S              =   0.5000      Ms0           =       NO
    GUESS VECTOR   =  H0BLOCK      OPENTYPE      = HIGHSPIN
    COLLAPSE SIZE  =        1      HD AVG        = EVANGELISTI
    MAX NUM VECS   =       25      REF SYM       =     AUTO
    IOPEN        =      YES

    EX ALLOW       =  1  1 
    STATE AVERAGE  =  0(1.00) 

   ==> CI Orbital and Space information <==

    RAS1 LVL      =       12      A RAS3 MAX    =        2
    RAS1 MIN      =       23      B RAS3 MAX    =        2
    A RAS1 LVL    =       12      RAS4 LVL      =      201
    A RAS1 MIN    =       11      A RAS4 MAX    =        0
    A RAS1 MAX    =       13      B RAS4 MAX    =        0
    B RAS1 LVL    =       12      RAS4 MAX      =        0
    B RAS1 MIN    =       10      A RAS34 MAX   =        2
    B RAS1 MAX    =       12      B RAS34 MAX   =        2
    RAS3 LVL      =       13      RAS34 MAX     =        2
    RAS3 MAX      =        2
   ------------------------------------------
               Space    Total    A'    A"
   ------------------------------------------
                 Nso      201   131    70
                 Nmo      201   131    70
               Ndocc       12    10     2
               Nsocc        1     0     1
   ------------------------------------------
                 CI Spaces
   ------------------------------------------
        Dropped DOCC        0     0     0
                RAS1       13    10     3
                RAS2        0     0     0
                RAS3      188   121    67
                RAS4        0     0     0
      Active (total)      201   131    70
        Dropped UOCC        0     0     0
   ------------------------------------------

   ==> Setting up CI strings <==

    There are 1373529 alpha and 5041985 beta strings
    The CI space requires 29087332 (2.91E+07) determinants and 9 blocks

   ==> Transforming CI integrals <==

	Presorting SO-basis two-electron integrals.
	Sorting File: SO Ints (nn|nn) nbuckets = 1
	Constructing frozen core operators
	Starting first half-transformation.
	Sorting half-transformed integrals.
	First half integral transformation complete.
	Starting second half-transformation.
	Two-electron integral transformation complete.

   ==> Starting CI iterations <==

    H0 Block Eigenvalue = -225.08771620

    Simultaneous Expansion Method (Block Davidson Method)
    Using 1 initial trial vectors

     Iter   Root       Total Energy       Delta E      C RMS

