
    -----------------------------------------------------------------------
          Psi4: An Open-Source Ab Initio Electronic Structure Package
                               Psi4 1.9.1 release

                         Git: Rev {} zzzzzzz 


    D. G. A. Smith, L. A. Burns, A. C. Simmonett, R. M. Parrish,
    M. C. Schieber, R. Galvelis, P. Kraus, H. Kruse, R. Di Remigio,
    A. Alenaizan, A. M. James, S. Lehtola, J. P. Misiewicz, M. Scheurer,
    R. A. Shaw, J. B. Schriber, Y. Xie, Z. L. Glick, D. A. Sirianni,
    J. S. O'Brien, J. M. Waldrop, A. Kumar, E. G. Hohenstein,
    B. P. Pritchard, B. R. Brooks, H. F. Schaefer III, A. Yu. Sokolov,
    K. Patkowski, A. E. DePrince III, U. Bozkaya, R. A. King,
    F. A. Evangelista, J. M. Turney, T. D. Crawford, C. D. Sherrill,
    J. Chem. Phys. 152(18) 184108 (2020). https://doi.org/10.1063/5.0006002

                            Additional Code Authors
    E. T. Seidl, C. L. Janssen, E. F. Valeev, M. L. Leininger,
    J. F. Gonthier, R. M. Richard, H. R. McAlexander, M. Saitow, X. Wang,
    P. Verma, M. H. Lechner, A. Jiang, S. Behnle, A. G. Heide,
    M. F. Herbst, and D. L. Poole

             Previous Authors, Complete List of Code Contributors,
                       and Citations for Specific Modules
    https://github.com/psi4/psi4/blob/master/codemeta.json
    https://github.com/psi4/psi4/graphs/contributors
    http://psicode.org/psi4manual/master/introduction.html#citing-psifour

    -----------------------------------------------------------------------


    Psi4 started on: Friday, 06 June 2025 03:47PM

    Process ID: 2265946
    Host:       na21
    PSIDATADIR: /software-nas/eb2024/easybuild/software/rocky/8.9/amd/zen4/software/PSI4/1.9.1-foss-2023b/share/psi4
    Memory:     500.0 MiB
    Threads:    40
    
  ==> Input File <==

--------------------------------------------------------------------------
memory 100Gb

molecule{
0 3
C     0.000000  0.000000  0.000000
}

set reference rohf

energy("CCSD(T)/cc-pVTZ")
--------------------------------------------------------------------------

  Memory set to  93.132 GiB by Python driver.

Scratch directory: /scratch/pobleyef/203989/
   => Libint2 <=

    Primary   basis highest AM E, G, H:  5, 4, 3
    Auxiliary basis highest AM E, G, H:  6, 5, 4
    Onebody   basis highest AM E, G, H:  6, 5, 4
    Solid Harmonics ordering:            Gaussian

*** tstart() called on na21
*** at Fri Jun  6 15:47:32 2025

   => Loading Basis Set <=

    Name: CC-PVTZ
    Role: ORBITAL
    Keyword: BASIS
    atoms 1 entry C          line   186 file /software-nas/eb2024/easybuild/software/rocky/8.9/amd/zen4/software/PSI4/1.9.1-foss-2023b/share/psi4/basis/cc-pvtz.gbs 


         ---------------------------------------------------------
                                   SCF
               by Justin Turney, Rob Parrish, Andy Simmonett
                          and Daniel G. A. Smith
                             ROHF Reference
                       40 Threads,  95367 MiB Core
         ---------------------------------------------------------

  ==> Geometry <==

    Molecular point group: d2h
    Geometry (in Angstrom), charge = 0, multiplicity = 3:

       Center              X                  Y                   Z               Mass       
    ------------   -----------------  -----------------  -----------------  -----------------
         C            0.000000000000     0.000000000000     0.000000000000    12.000000000000

  Running in d2h symmetry.

  Rotational constants: A = ************  B = ************  C = ************ [cm^-1]
  Rotational constants: A = ************  B = ************  C = ************ [MHz]
  Nuclear repulsion =    0.000000000000000

  Charge       = 0
  Multiplicity = 3
  Electrons    = 6
  Nalpha       = 4
  Nbeta        = 2

  ==> Algorithm <==

  SCF Algorithm Type is PK.
  DIIS enabled.
  MOM disabled.
  Fractional occupation disabled.
  Guess Type is CORE.
  Energy threshold   = 1.00e-08
  Density threshold  = 1.00e-08
  Integral threshold = 1.00e-12

  ==> Primary Basis <==

  Basis Set: CC-PVTZ
    Blend: CC-PVTZ
    Number of shells: 10
    Number of basis functions: 30
    Number of Cartesian functions: 35
    Spherical Harmonics?: true
    Max angular momentum: 3

  ==> Integral Setup <==

  Using in-core PK algorithm.
   Calculation information:
      Number of atoms:                   1
      Number of AO shells:              10
      Number of primitives:             26
      Number of atomic orbitals:        35
      Number of basis functions:        30

      Integral cutoff                 1.00e-12
      Number of threads:                40

  Performing in-core PK
  Using 216690 doubles for integral storage.
  We computed 13089 shell quartets total.
  Whereas there are 1540 unique shell quartets.
   749.94 percent of shell quartets recomputed by reordering.

  ==> DiskJK: Disk-Based J/K Matrices <==

    J tasked:                  Yes
    K tasked:                  Yes
    wK tasked:                  No
    Memory [MiB]:            71525
    Schwarz Cutoff:          1E-12

    OpenMP threads:             40

  Minimum eigenvalue in the overlap matrix is 4.1611480953E-02.
  Reciprocal condition number of the overlap matrix is 1.8336870813E-02.
    Using symmetric orthogonalization.

  ==> Pre-Iterations <==

  SCF Guess: Core (One-Electron) Hamiltonian.

   -------------------------------------------------------
    Irrep   Nso     Nmo     Nalpha   Nbeta   Ndocc  Nsocc
   -------------------------------------------------------
     Ag         8       8       2       2       2       0
     B1g        2       2       0       0       0       0
     B2g        2       2       0       0       0       0
     B3g        2       2       0       0       0       0
     Au         1       1       0       0       0       0
     B1u        5       5       1       0       0       1
     B2u        5       5       1       0       0       1
     B3u        5       5       0       0       0       0
   -------------------------------------------------------
    Total      30      30       4       2       2       2
   -------------------------------------------------------

  ==> Iterations <==

                        Total Energy        Delta E     RMS |[F,P]|

    Occupation by irrep:
             Ag   B1g   B2g   B3g    Au   B1u   B2u   B3u 
    DOCC [     2,    0,    0,    0,    0,    0,    0,    0 ]
    SOCC [     0,    0,    0,    0,    0,    1,    0,    1 ]
    NA   [     2,    0,    0,    0,    0,    1,    0,    1 ]
    NB   [     2,    0,    0,    0,    0,    0,    0,    0 ]

   @ROHF iter   1:   -34.93450660650672   -3.49345e+01   1.72574e-01 DIIS
   @ROHF iter   2:   -37.02887098121990   -2.09436e+00   4.83313e-02 DIIS
   @ROHF iter   3:   -37.67191623433510   -6.43045e-01   9.91363e-03 DIIS
   @ROHF iter   4:   -37.68547706273081   -1.35608e-02   2.42406e-03 DIIS
   @ROHF iter   5:   -37.68667436477212   -1.19730e-03   3.29458e-04 DIIS
   @ROHF iter   6:   -37.68670669355122   -3.23288e-05   7.97306e-05 DIIS
   @ROHF iter   7:   -37.68670804670577   -1.35315e-06   6.75461e-06 DIIS
   @ROHF iter   8:   -37.68670805132543   -4.61965e-09   5.69624e-07 DIIS
   @ROHF iter   9:   -37.68670805138242   -5.69997e-11   9.29876e-08 DIIS
   @ROHF iter  10:   -37.68670805138379   -1.36424e-12   4.91999e-09 DIIS
  Energy and wave function converged.


  ==> Post-Iterations <==

    Orbital Energies [Eh]
    ---------------------

    Doubly Occupied:                                                      

       1Ag   -11.324847     2Ag    -0.705212  

    Singly Occupied:                                                      

       1B1u   -0.129018     1B3u   -0.129018  

    Virtual:                                                              

       1B2u    0.051582     2B3u    0.465659     2B1u    0.465659  
       2B2u    0.500707     3Ag     0.524761     4Ag     0.865833  
       1B3g    0.868674     1B1g    0.868674     1B2g    0.877683  
       5Ag     0.877683     3B2u    2.307357     3B3u    2.314330  
       3B1u    2.314330     4B2u    2.952699     4B1u    2.957251  
       4B3u    2.957251     1Au     2.971281     5B2u    2.971281  
       5B3u    2.994904     5B1u    2.994904     6Ag     3.270103  
       2B1g    3.277184     2B3g    3.277184     2B2g    3.298680  
       7Ag     3.298680     8Ag     4.153756  

    Final Occupation by Irrep:
             Ag   B1g   B2g   B3g    Au   B1u   B2u   B3u 
    DOCC [     2,    0,    0,    0,    0,    0,    0,    0 ]
    SOCC [     0,    0,    0,    0,    0,    1,    0,    1 ]
    NA   [     2,    0,    0,    0,    0,    1,    0,    1 ]
    NB   [     2,    0,    0,    0,    0,    0,    0,    0 ]

  @ROHF Final Energy:   -37.68670805138379

   => Energetics <=

    Nuclear Repulsion Energy =              0.0000000000000000
    One-Electron Energy =                 -50.4480536875401668
    Two-Electron Energy =                  12.7613456361563742
    Total Energy =                        -37.6867080513837891

Computation Completed


Properties will be evaluated at   0.000000,   0.000000,   0.000000 [a0]

Properties computed using the SCF density matrix


 Multipole Moments:

 ------------------------------------------------------------------------------------
     Multipole            Electronic (a.u.)      Nuclear  (a.u.)        Total (a.u.)
 ------------------------------------------------------------------------------------

 L = 1.  Multiply by 2.5417464519 to convert [e a0] to [Debye]
 Dipole X            :          0.0000000            0.0000000            0.0000000
 Dipole Y            :          0.0000000            0.0000000            0.0000000
 Dipole Z            :          0.0000000            0.0000000            0.0000000
 Magnitude           :                                                    0.0000000

 ------------------------------------------------------------------------------------

*** tstop() called on na21 at Fri Jun  6 15:47:32 2025
Module time:
	user time   =       2.68 seconds =       0.04 minutes
	system time =       0.15 seconds =       0.00 minutes
	total time  =          0 seconds =       0.00 minutes
Total time:
	user time   =       2.68 seconds =       0.04 minutes
	system time =       0.15 seconds =       0.00 minutes
	total time  =          0 seconds =       0.00 minutes
 MINTS: Wrapper to libmints.
   by Justin Turney

   Calculation information:
      Number of threads:                40
      Number of atoms:                   1
      Number of AO shells:              10
      Number of SO shells:              10
      Number of primitives:             26
      Number of atomic orbitals:        35
      Number of basis functions:        30

      Number of irreps:                  8
      Integral cutoff                 1.00e-12
      Number of functions per irrep: [   8    2    2    2    1    5    5    5 ]

 OEINTS: Overlap, kinetic, potential, dipole, and quadrupole integrals
         stored in file 35.

      Computing two-electron integrals...done
      Computed 11764 non-zero two-electron integrals.
        Stored in file 33.


*** tstart() called on na21
*** at Fri Jun  6 15:47:33 2025


	Wfn Parameters:
	--------------------
	Wavefunction         = CCSD_T
	Number of irreps     = 8
	Number of MOs        = 30
	Number of active MOs = 30
	AO-Basis             = NONE
	Semicanonical        = true
	Reference            = ROHF changed to UHF for semicanonical orbitals
	Print Level          = 1

	IRREP	# MOs	# FZDC	# DOCC	# SOCC	# VIRT	# FZVR
	-----	-----	------	------	------	------	------
	 Ag	   8	    0	    2	    0	    6	    0
	 B1g	   2	    0	    0	    0	    2	    0
	 B2g	   2	    0	    0	    0	    2	    0
	 B3g	   2	    0	    0	    0	    2	    0
	 Au	   1	    0	    0	    0	    1	    0
	 B1u	   5	    0	    0	    1	    4	    0
	 B2u	   5	    0	    0	    0	    5	    0
	 B3u	   5	    0	    0	    1	    4	    0
	Transforming integrals...
	IWL integrals will be deleted.
	(OO|OO)...
	Presorting SO-basis two-electron integrals.
	Sorting File: SO Ints (nn|nn) nbuckets = 1
	Constructing frozen core operators
	Starting AA/AB first half-transformation.
	Sorting AA/AB half-transformed integrals.
	Starting BB first half-transformation.
	Sorting BB half-transformed integrals.
	First half integral transformation complete.
	Starting AA second half-transformation.
	Starting AB second half-transformation.
	Starting BB second half-transformation.
	Two-electron integral transformation complete.
	(OO|OV)...
	Starting AA second half-transformation.
	Starting AB second half-transformation.
	Starting BB second half-transformation.
	Two-electron integral transformation complete.
	(OO|VV)...
	Starting AA second half-transformation.
	Starting AB second half-transformation.
	Starting BB second half-transformation.
	Two-electron integral transformation complete.
	(OV|OO)...
	Starting AA/AB first half-transformation.
	Sorting AA/AB half-transformed integrals.
	Starting BB first half-transformation.
	Sorting BB half-transformed integrals.
	First half integral transformation complete.
	Starting AA second half-transformation.
	Starting AB second half-transformation.
	Starting BB second half-transformation.
	Two-electron integral transformation complete.
	(OV|OV)...
	Starting AA second half-transformation.
	Starting AB second half-transformation.
	Starting BB second half-transformation.
	Two-electron integral transformation complete.
	(OV|VV)...
	Starting AA second half-transformation.
	Starting AB second half-transformation.
	Starting BB second half-transformation.
	Two-electron integral transformation complete.
	(VV|OO)...
	Starting AA/AB first half-transformation.
	Sorting AA/AB half-transformed integrals.
	Starting BB first half-transformation.
	Sorting BB half-transformed integrals.
	First half integral transformation complete.
	Starting AA second half-transformation.
	Starting AB second half-transformation.
	Starting BB second half-transformation.
	Two-electron integral transformation complete.
	(VV|OV)...
	Starting AA second half-transformation.
	Starting AB second half-transformation.
	Starting BB second half-transformation.
	Two-electron integral transformation complete.
	(VV|VV)...
	Starting AA second half-transformation.
	Starting AB second half-transformation.
	Starting BB second half-transformation.
	Two-electron integral transformation complete.
	Frozen core energy     =      0.00000000000000

	Size of irrep 0 of <AB|CD> integrals:      0.002 (MW) /      0.013 (MB)
	Size of irrep 1 of <AB|CD> integrals:      0.002 (MW) /      0.013 (MB)
	Size of irrep 2 of <AB|CD> integrals:      0.001 (MW) /      0.011 (MB)
	Size of irrep 3 of <AB|CD> integrals:      0.002 (MW) /      0.013 (MB)
	Size of irrep 4 of <AB|CD> integrals:      0.001 (MW) /      0.008 (MB)
	Size of irrep 5 of <AB|CD> integrals:      0.002 (MW) /      0.015 (MB)
	Size of irrep 6 of <AB|CD> integrals:      0.002 (MW) /      0.018 (MB)
	Size of irrep 7 of <AB|CD> integrals:      0.002 (MW) /      0.015 (MB)
	Total:                                     0.013 (MW) /      0.107 (MB)

	Size of irrep 0 of <ab|cd> integrals:      0.002 (MW) /      0.018 (MB)
	Size of irrep 1 of <ab|cd> integrals:      0.002 (MW) /      0.017 (MB)
	Size of irrep 2 of <ab|cd> integrals:      0.002 (MW) /      0.017 (MB)
	Size of irrep 3 of <ab|cd> integrals:      0.002 (MW) /      0.017 (MB)
	Size of irrep 4 of <ab|cd> integrals:      0.001 (MW) /      0.010 (MB)
	Size of irrep 5 of <ab|cd> integrals:      0.003 (MW) /      0.022 (MB)
	Size of irrep 6 of <ab|cd> integrals:      0.003 (MW) /      0.022 (MB)
	Size of irrep 7 of <ab|cd> integrals:      0.003 (MW) /      0.022 (MB)
	Total:                                     0.018 (MW) /      0.144 (MB)

	Size of irrep 0 of <Ab|Cd> integrals:      0.013 (MW) /      0.104 (MB)
	Size of irrep 1 of <Ab|Cd> integrals:      0.007 (MW) /      0.059 (MB)
	Size of irrep 2 of <Ab|Cd> integrals:      0.007 (MW) /      0.054 (MB)
	Size of irrep 3 of <Ab|Cd> integrals:      0.007 (MW) /      0.059 (MB)
	Size of irrep 4 of <Ab|Cd> integrals:      0.005 (MW) /      0.037 (MB)
	Size of irrep 5 of <Ab|Cd> integrals:      0.009 (MW) /      0.074 (MB)
	Size of irrep 6 of <Ab|Cd> integrals:      0.010 (MW) /      0.080 (MB)
	Size of irrep 7 of <Ab|Cd> integrals:      0.009 (MW) /      0.074 (MB)
	Total:                                     0.068 (MW) /      0.541 (MB)

	Size of irrep 0 of <IA|BC> integrals:      0.002 (MW) /      0.017 (MB)
	Size of irrep 1 of <IA|BC> integrals:      0.001 (MW) /      0.006 (MB)
	Size of irrep 2 of <IA|BC> integrals:      0.001 (MW) /      0.007 (MB)
	Size of irrep 3 of <IA|BC> integrals:      0.001 (MW) /      0.006 (MB)
	Size of irrep 4 of <IA|BC> integrals:      0.000 (MW) /      0.003 (MB)
	Size of irrep 5 of <IA|BC> integrals:      0.001 (MW) /      0.011 (MB)
	Size of irrep 6 of <IA|BC> integrals:      0.001 (MW) /      0.011 (MB)
	Size of irrep 7 of <IA|BC> integrals:      0.001 (MW) /      0.011 (MB)
	Total:                                     0.009 (MW) /      0.073 (MB)

	Size of irrep 0 of <ia|bc> integrals:      0.001 (MW) /      0.012 (MB)
	Size of irrep 1 of <ia|bc> integrals:      0.000 (MW) /      0.003 (MB)
	Size of irrep 2 of <ia|bc> integrals:      0.000 (MW) /      0.003 (MB)
	Size of irrep 3 of <ia|bc> integrals:      0.000 (MW) /      0.003 (MB)
	Size of irrep 4 of <ia|bc> integrals:      0.000 (MW) /      0.001 (MB)
	Size of irrep 5 of <ia|bc> integrals:      0.001 (MW) /      0.008 (MB)
	Size of irrep 6 of <ia|bc> integrals:      0.001 (MW) /      0.008 (MB)
	Size of irrep 7 of <ia|bc> integrals:      0.001 (MW) /      0.008 (MB)
	Total:                                     0.006 (MW) /      0.047 (MB)

	Size of irrep 0 of <Ia|Bc> integrals:      0.003 (MW) /      0.020 (MB)
	Size of irrep 1 of <Ia|Bc> integrals:      0.001 (MW) /      0.007 (MB)
	Size of irrep 2 of <Ia|Bc> integrals:      0.001 (MW) /      0.009 (MB)
	Size of irrep 3 of <Ia|Bc> integrals:      0.001 (MW) /      0.007 (MB)
	Size of irrep 4 of <Ia|Bc> integrals:      0.000 (MW) /      0.003 (MB)
	Size of irrep 5 of <Ia|Bc> integrals:      0.002 (MW) /      0.014 (MB)
	Size of irrep 6 of <Ia|Bc> integrals:      0.001 (MW) /      0.011 (MB)
	Size of irrep 7 of <Ia|Bc> integrals:      0.002 (MW) /      0.014 (MB)
	Total:                                     0.011 (MW) /      0.085 (MB)

	Size of irrep 0 of <iA|bC> integrals:      0.001 (MW) /      0.011 (MB)
	Size of irrep 1 of <iA|bC> integrals:      0.000 (MW) /      0.003 (MB)
	Size of irrep 2 of <iA|bC> integrals:      0.000 (MW) /      0.003 (MB)
	Size of irrep 3 of <iA|bC> integrals:      0.000 (MW) /      0.003 (MB)
	Size of irrep 4 of <iA|bC> integrals:      0.000 (MW) /      0.001 (MB)
	Size of irrep 5 of <iA|bC> integrals:      0.001 (MW) /      0.006 (MB)
	Size of irrep 6 of <iA|bC> integrals:      0.001 (MW) /      0.008 (MB)
	Size of irrep 7 of <iA|bC> integrals:      0.001 (MW) /      0.006 (MB)
	Total:                                     0.005 (MW) /      0.040 (MB)

	Size of irrep 0 of tIjAb amplitudes:       0.000 (MW) /      0.004 (MB)
	Size of irrep 1 of tIjAb amplitudes:       0.000 (MW) /      0.000 (MB)
	Size of irrep 2 of tIjAb amplitudes:       0.000 (MW) /      0.000 (MB)
	Size of irrep 3 of tIjAb amplitudes:       0.000 (MW) /      0.000 (MB)
	Size of irrep 4 of tIjAb amplitudes:       0.000 (MW) /      0.000 (MB)
	Size of irrep 5 of tIjAb amplitudes:       0.000 (MW) /      0.002 (MB)
	Size of irrep 6 of tIjAb amplitudes:       0.000 (MW) /      0.000 (MB)
	Size of irrep 7 of tIjAb amplitudes:       0.000 (MW) /      0.002 (MB)
	Total:                                     0.001 (MW) /      0.007 (MB)

	Nuclear Rep. energy          =      0.00000000000000
	SCF energy                   =    -37.68670805138379
	One-electron energy          =    -50.44805378931092
	Two-electron (AA) energy     =      3.63748880754790
	Two-electron (BB) energy     =      0.75930990679574
	Two-electron (AB) energy     =      8.36454702358346
	Two-electron energy          =     12.76134573792710
	Reference energy             =    -37.68670805138382

*** tstop() called on na21 at Fri Jun  6 15:47:33 2025
Module time:
	user time   =       0.02 seconds =       0.00 minutes
	system time =       0.05 seconds =       0.00 minutes
	total time  =          0 seconds =       0.00 minutes
Total time:
	user time   =       3.16 seconds =       0.05 minutes
	system time =       0.28 seconds =       0.00 minutes
	total time  =          1 seconds =       0.02 minutes
            **************************
            *                        *
            *        CCENERGY        *
            *                        *
            **************************

    Nuclear Rep. energy (wfn)     =    0.000000000000000
    SCF energy          (wfn)     =  -37.686708051383789
    Reference energy    (file100) =  -37.686708051383825

    Input parameters:
    -----------------
    Wave function   =     CCSD_T
    Reference wfn   =     ROHF changed to UHF for Semicanonical Orbitals
    Brueckner       =     No
    Memory (Mbytes) =     100000.0
    Maxiter         =     50
    R_Convergence   =     1.0e-07
    E_Convergence   =     1.0e-06
    Restart         =     Yes
    DIIS            =     Yes
    AO Basis        =     NONE
    ABCD            =     NEW
    Cache Level     =     2
    Cache Type      =     LRU
    Print Level     =     1
    Num. of threads =     40
    # Amps to Print =     10
    Print MP2 Amps? =     No
    Analyze T2 Amps =     No
    Print Pair Ener =     No
    Local CC        =     No
    SCS-MP2         =     False
    SCSN-MP2        =     False
    SCS-CCSD        =     False

MP2 correlation energy -0.0805221883023551
                Solving CC Amplitude Equations
                ------------------------------
  Iter             Energy              RMS        T1Diag      D1Diag    New D1Diag    D2Diag
  ----     ---------------------    ---------   ----------  ----------  ----------   --------
     0        -0.080573163259601    0.000e+00    0.017851    0.000000    0.000000    0.000000
     1        -0.094234211546695    4.505e-02    0.020966    0.000000    0.000000    0.000000
     2        -0.099973923672807    1.885e-02    0.022168    0.000000    0.000000    0.000000
     3        -0.100508862030478    5.061e-03    0.021956    0.000000    0.000000    0.000000
     4        -0.100546195366384    7.969e-04    0.021900    0.000000    0.000000    0.000000
     5        -0.100536483017345    1.260e-04    0.021915    0.000000    0.000000    0.000000
     6        -0.100540540812696    2.781e-05    0.021923    0.000000    0.000000    0.000000
     7        -0.100539648818461    6.582e-06    0.021924    0.000000    0.000000    0.000000
     8        -0.100539655261035    1.457e-06    0.021924    0.000000    0.000000    0.000000
     9        -0.100539683738016    4.175e-07    0.021924    0.000000    0.000000    0.000000
    10        -0.100539684795984    8.840e-08    0.021924    0.000000    0.000000    0.000000

    Iterations converged.


    Largest TIA Amplitudes:
              1   0         0.0246434276
              1   2        -0.0163422043
              1   4        -0.0072319678
              2  14        -0.0023892222
              3  23        -0.0023892200
              2  13         0.0022830101
              3  22         0.0022830037
              0   5         0.0018145848
              1   5         0.0017973954
              0   0         0.0015958254

    Largest Tia Amplitudes:
              1   1        -0.0385157335
              1   0        -0.0161776333
              1   3         0.0133536739
              1   5         0.0010481448
              0   3         0.0008338343
              0   1        -0.0004282405
              0   0        -0.0003778583
              0   5        -0.0002761844

    Largest TIJAB Amplitudes:
      3   2  22  13        -0.0376718675
      3   2   8   1         0.0276996475
      2   1  13   0        -0.0226510218
      3   1  22   0        -0.0226510217
      2   1  17  10        -0.0159972138
      3   1  17   6        -0.0159972138
      3   2  22  14         0.0149207714
      3   2  23  13         0.0149207714
      3   2  10   6         0.0137658420
      3   2  23  14        -0.0120314040

    Largest Tijab Amplitudes:
      1   0  15  13        -0.0015554628
      1   0  25  23        -0.0015554628
      1   0  25  24        -0.0015330814
      1   0  15  14        -0.0015330814
      1   0  20  19        -0.0013893847
      1   0  20  18         0.0013819941
      1   0   5   0         0.0004785770
      1   0  14  13         0.0002678683
      1   0  24  23         0.0002678683
      1   0  19  18        -0.0001620199

    Largest TIjAb Amplitudes:
      1   1  17  18        -0.1101569694
      1   1  17  19         0.0547409693
      1   1  18  18         0.0487507452
      2   1  10  18         0.0417341833
      3   1   6  18         0.0417341832
      2   1   1  13        -0.0398023092
      2   1   8  23         0.0398023090
      3   1   8  13         0.0398023089
      3   1   1  23         0.0398023087
      2   1  13   0        -0.0358456609

    SCF energy       (wfn)                    =  -37.686708051383789
    Reference energy (file100)                =  -37.686708051383825

    Opposite-spin MP2 correlation energy      =   -0.063061960489848
    Same-spin MP2 correlation energy          =   -0.014201175784848
    Singles MP2 correlation energy            =   -0.003259052027659
    MP2 correlation energy                    =   -0.080522188302355
      * MP2 total energy                      =  -37.767230239686178

    Opposite-spin CCSD correlation energy     =   -0.081007946512576
    Same-spin CCSD correlation energy         =   -0.015790795413051
    Singles CCSD correlation energy           =   -0.003740942870357
    CCSD correlation energy                   =   -0.100539684795984
      * CCSD total energy                     =  -37.787247736179808

            **************************
            *                        *
            *        CCTRIPLES       *
            *                        *
            **************************


    Wave function   =    CCSD_T
    Reference wfn   =    ROHF changed to UHF for Semicanonical Orbitals

    Nuclear Rep. energy (wfn)                =    0.000000000000000
    SCF energy          (wfn)                =  -37.686708051383789
    Reference energy    (file100)            =  -37.686708051383825
    CCSD energy         (file100)            =   -0.100539684795984
    Total CCSD energy   (file100)            =  -37.787247736179808

    Number of ijk index combinations:
    Spin Case AAA:                                   4
    Spin Case BBB:                                   0
    Spin Case AAB:                                  12
    Spin Case ABB:                                   4
    AAA (T) energy                             =   -0.000058216661757
    BBB (T) energy                             =    0.000000000000000
    AAB (T) energy                             =   -0.002158335147907
    ABB (T) energy                             =   -0.000062019934197
    (T) energy                                   =   -0.002278571743861
      * CCSD(T) total energy                     =  -37.789526307923673


    Psi4 stopped on: Friday, 06 June 2025 03:47PM
    Psi4 wall time for execution: 0:00:00.72

*** Psi4 exiting successfully. Buy a developer a beer!
