
    -----------------------------------------------------------------------
          Psi4: An Open-Source Ab Initio Electronic Structure Package
                               Psi4 1.9.1 release

                         Git: Rev {} zzzzzzz 


    D. G. A. Smith, L. A. Burns, A. C. Simmonett, R. M. Parrish,
    M. C. Schieber, R. Galvelis, P. Kraus, H. Kruse, R. Di Remigio,
    A. Alenaizan, A. M. James, S. Lehtola, J. P. Misiewicz, M. Scheurer,
    R. A. Shaw, J. B. Schriber, Y. Xie, Z. L. Glick, D. A. Sirianni,
    J. S. O'Brien, J. M. Waldrop, A. Kumar, E. G. Hohenstein,
    B. P. Pritchard, B. R. Brooks, H. F. Schaefer III, A. Yu. Sokolov,
    K. Patkowski, A. E. DePrince III, U. Bozkaya, R. A. King,
    F. A. Evangelista, J. M. Turney, T. D. Crawford, C. D. Sherrill,
    J. Chem. Phys. 152(18) 184108 (2020). https://doi.org/10.1063/5.0006002

                            Additional Code Authors
    E. T. Seidl, C. L. Janssen, E. F. Valeev, M. L. Leininger,
    J. F. Gonthier, R. M. Richard, H. R. McAlexander, M. Saitow, X. Wang,
    P. Verma, M. H. Lechner, A. Jiang, S. Behnle, A. G. Heide,
    M. F. Herbst, and D. L. Poole

             Previous Authors, Complete List of Code Contributors,
                       and Citations for Specific Modules
    https://github.com/psi4/psi4/blob/master/codemeta.json
    https://github.com/psi4/psi4/graphs/contributors
    http://psicode.org/psi4manual/master/introduction.html#citing-psifour

    -----------------------------------------------------------------------


    Psi4 started on: Friday, 06 June 2025 03:47PM

    Process ID: 2266066
    Host:       na21
    PSIDATADIR: /software-nas/eb2024/easybuild/software/rocky/8.9/amd/zen4/software/PSI4/1.9.1-foss-2023b/share/psi4
    Memory:     500.0 MiB
    Threads:    40
    
  ==> Input File <==

--------------------------------------------------------------------------
memory 100Gb

molecule{
0 1
Be     0.7279036  -0.7279036  0.7279036
Be     -0.7279036  0.7279036  0.7279036
Be     -0.7279036  -0.7279036  -0.7279036
Be     0.7279036  0.7279036  -0.7279036
}

set reference rhf

energy("CCSD(T)/cc-pVTZ")
--------------------------------------------------------------------------

  Memory set to  93.132 GiB by Python driver.

Scratch directory: /scratch/pobleyef/203991/
   => Libint2 <=

    Primary   basis highest AM E, G, H:  5, 4, 3
    Auxiliary basis highest AM E, G, H:  6, 5, 4
    Onebody   basis highest AM E, G, H:  6, 5, 4
    Solid Harmonics ordering:            Gaussian

*** tstart() called on na21
*** at Fri Jun  6 15:47:36 2025

   => Loading Basis Set <=

    Name: CC-PVTZ
    Role: ORBITAL
    Keyword: BASIS
    atoms 1-4 entry BE         line   102 file /software-nas/eb2024/easybuild/software/rocky/8.9/amd/zen4/software/PSI4/1.9.1-foss-2023b/share/psi4/basis/cc-pvtz.gbs 


         ---------------------------------------------------------
                                   SCF
               by Justin Turney, Rob Parrish, Andy Simmonett
                          and Daniel G. A. Smith
                              RHF Reference
                       40 Threads,  95367 MiB Core
         ---------------------------------------------------------

  ==> Geometry <==

    Molecular point group: c2v
    Full point group: Td

    Geometry (in Angstrom), charge = 0, multiplicity = 1:

       Center              X                  Y                   Z               Mass       
    ------------   -----------------  -----------------  -----------------  -----------------
         BE           1.029411143220     0.000000000000     0.727903600000     9.012183065000
         BE          -1.029411143220    -0.000000000000     0.727903600000     9.012183065000
         BE           0.000000000000    -1.029411143220    -0.727903600000     9.012183065000
         BE          -0.000000000000     1.029411143220    -0.727903600000     9.012183065000

  Running in c2v symmetry.

  Rotational constants: A =      0.44129  B =      0.44129  C =      0.44129 [cm^-1]
  Rotational constants: A =  13229.68406  B =  13229.68406  C =  13229.68406 [MHz]
  Nuclear repulsion =   24.674792262984663

  Charge       = 0
  Multiplicity = 1
  Electrons    = 16
  Nalpha       = 8
  Nbeta        = 8

  ==> Algorithm <==

  SCF Algorithm Type is PK.
  DIIS enabled.
  MOM disabled.
  Fractional occupation disabled.
  Guess Type is SAD.
  Energy threshold   = 1.00e-08
  Density threshold  = 1.00e-08
  Integral threshold = 1.00e-12

  ==> Primary Basis <==

  Basis Set: CC-PVTZ
    Blend: CC-PVTZ
    Number of shells: 40
    Number of basis functions: 120
    Number of Cartesian functions: 140
    Spherical Harmonics?: true
    Max angular momentum: 3

  ==> Integral Setup <==

  Using in-core PK algorithm.
   Calculation information:
      Number of atoms:                   4
      Number of AO shells:              40
      Number of primitives:            136
      Number of atomic orbitals:       140
      Number of basis functions:       120

      Integral cutoff                 1.00e-12
      Number of threads:                40

  Performing in-core PK
  Using 52714860 doubles for integral storage.
  We computed 1105909 shell quartets total.
  Whereas there are 336610 unique shell quartets.
   228.54 percent of shell quartets recomputed by reordering.

  ==> DiskJK: Disk-Based J/K Matrices <==

    J tasked:                  Yes
    K tasked:                  Yes
    wK tasked:                  No
    Memory [MiB]:            71525
    Schwarz Cutoff:          1E-12

    OpenMP threads:             40

  Minimum eigenvalue in the overlap matrix is 1.9527288956E-04.
  Reciprocal condition number of the overlap matrix is 2.7372240746E-05.
    Using symmetric orthogonalization.

  ==> Pre-Iterations <==

  SCF Guess: Superposition of Atomic Densities via on-the-fly atomic UHF (no occupation information).

   -------------------------
    Irrep   Nso     Nmo    
   -------------------------
     A1        40      40 
     A2        20      20 
     B1        30      30 
     B2        30      30 
   -------------------------
    Total     120     120
   -------------------------

  ==> Iterations <==

                        Total Energy        Delta E     RMS |[F,P]|

   @RHF iter SAD:   -57.65776397424567   -5.76578e+01   0.00000e+00 
   @RHF iter   1:   -58.22812572027709   -5.70362e-01   6.30181e-03 ADIIS/DIIS
   @RHF iter   2:   -58.33877137873533   -1.10646e-01   2.31007e-03 ADIIS/DIIS
   @RHF iter   3:   -58.35621659721632   -1.74452e-02   2.15633e-04 ADIIS/DIIS
   @RHF iter   4:   -58.35679749013131   -5.80893e-04   1.02136e-04 ADIIS/DIIS
   @RHF iter   5:   -58.35696332225903   -1.65832e-04   2.56027e-05 DIIS
   @RHF iter   6:   -58.35697741911017   -1.40969e-05   4.83251e-06 DIIS
   @RHF iter   7:   -58.35697778351336   -3.64403e-07   8.18110e-07 DIIS
   @RHF iter   8:   -58.35697778953243   -6.01906e-09   5.32881e-08 DIIS
   @RHF iter   9:   -58.35697778955310   -2.06697e-11   9.63136e-09 DIIS
  Energy and wave function converged.


  ==> Post-Iterations <==

    Orbital Energies [Eh]
    ---------------------

    Doubly Occupied:                                                      

       1A1    -4.689852     1B2    -4.688926     2A1    -4.688926  
       1B1    -4.688926     3A1    -0.553295     4A1    -0.273876  
       2B1    -0.273876     2B2    -0.273876  

    Virtual:                                                              

       5A1    -0.008331     3B2     0.048650     6A1     0.048650  
       3B1     0.048650     7A1     0.055531     1A2     0.055531  
       4B2     0.146297     8A1     0.146297     4B1     0.146297  
       9A1     0.167688     5B2     0.173646     5B1     0.173646  
       2A2     0.173646     6B2     0.229440    10A1     0.229440  
       6B1     0.229440    11A1     0.235670     3A2     0.235670  
       7B2     0.250782    12A1     0.250782     7B1     0.250782  
      13A1     0.339849     8B1     0.388102     8B2     0.388102  
       4A2     0.388102     9B2     0.463517    14A1     0.463517  
       9B1     0.463517    10B2     0.494804    15A1     0.494804  
      10B1     0.494804    16A1     0.586765     5A2     0.614887  
      17A1     0.614887     6A2     0.659035    11B1     0.659035  
      11B2     0.659035    12B2     0.693362    18A1     0.693362  
      12B1     0.693362     7A2     0.704388    19A1     0.704388  
       8A2     0.845211    13B2     0.845211    13B1     0.845211  
      14B2     0.867654    20A1     0.867654    14B1     0.867654  
      15B2     0.952042    21A1     0.952042    15B1     0.952042  
      22A1     1.141975    16B2     1.168636    16B1     1.168636  
      23A1     1.168636    24A1     1.170506     9A2     1.173372  
      25A1     1.173372    10A2     1.197452    17B1     1.197452  
      17B2     1.197452    18B2     1.219568    26A1     1.219568  
      18B1     1.219568    11A2     1.338652    27A1     1.338652  
      19B2     1.466265    19B1     1.466265    28A1     1.466265  
      29A1     1.487534    12A2     1.490321    20B2     1.490321  
      20B1     1.490321    21B2     1.558483    30A1     1.558483  
      21B1     1.558483    13A2     1.561349    31A1     1.561349  
      14A2     1.572857    22B1     1.572857    22B2     1.572857  
      23B2     1.718062    32A1     1.718062    23B1     1.718062  
      15A2     1.753418    24B2     1.753418    24B1     1.753418  
      25B2     1.755222    33A1     1.755222    25B1     1.755222  
      34A1     1.784844    16A2     1.833229    17A2     2.045764  
      35A1     2.045764    36A1     2.066706    26B1     2.066706  
      26B2     2.066706    27B2     2.205365    18A2     2.205365  
      27B1     2.205365    19A2     2.279983    37A1     2.279983  
      38A1     2.326283    28B1     2.326283    28B2     2.326283  
      20A2     2.338313    29B2     2.338313    29B1     2.338313  
      39A1     2.687857    40A1     8.206751    30B2     8.206751  
      30B1     8.206751  

    Final Occupation by Irrep:
             A1    A2    B1    B2 
    DOCC [     4,    0,    2,    2 ]
    NA   [     4,    0,    2,    2 ]
    NB   [     4,    0,    2,    2 ]

  @RHF Final Energy:   -58.35697778955310

   => Energetics <=

    Nuclear Repulsion Energy =             24.6747922629846634
    One-Electron Energy =                -125.8004305654217632
    Two-Electron Energy =                  42.7686605128839972
    Total Energy =                        -58.3569777895530990

Computation Completed


Properties will be evaluated at   0.000000,   0.000000,   0.000000 [a0]

Properties computed using the SCF density matrix


 Multipole Moments:

 ------------------------------------------------------------------------------------
     Multipole            Electronic (a.u.)      Nuclear  (a.u.)        Total (a.u.)
 ------------------------------------------------------------------------------------

 L = 1.  Multiply by 2.5417464519 to convert [e a0] to [Debye]
 Dipole X            :          0.0000000           -0.0000000           -0.0000000
 Dipole Y            :          0.0000000            0.0000000            0.0000000
 Dipole Z            :          0.0000000            0.0000000            0.0000000
 Magnitude           :                                                    0.0000000

 ------------------------------------------------------------------------------------

*** tstop() called on na21 at Fri Jun  6 15:47:40 2025
Module time:
	user time   =      31.55 seconds =       0.53 minutes
	system time =       0.88 seconds =       0.01 minutes
	total time  =          4 seconds =       0.07 minutes
Total time:
	user time   =      31.55 seconds =       0.53 minutes
	system time =       0.88 seconds =       0.01 minutes
	total time  =          4 seconds =       0.07 minutes
 MINTS: Wrapper to libmints.
   by Justin Turney

   Calculation information:
      Number of threads:                40
      Number of atoms:                   4
      Number of AO shells:              40
      Number of SO shells:              20
      Number of primitives:            136
      Number of atomic orbitals:       140
      Number of basis functions:       120

      Number of irreps:                  4
      Integral cutoff                 1.00e-12
      Number of functions per irrep: [  40   20   30   30 ]

 OEINTS: Overlap, kinetic, potential, dipole, and quadrupole integrals
         stored in file 35.

      Computing two-electron integrals...done
      Computed 6190998 non-zero two-electron integrals.
        Stored in file 33.


*** tstart() called on na21
*** at Fri Jun  6 15:47:42 2025


	Wfn Parameters:
	--------------------
	Wavefunction         = CCSD_T
	Number of irreps     = 4
	Number of MOs        = 120
	Number of active MOs = 120
	AO-Basis             = NONE
	Semicanonical        = false
	Reference            = RHF
	Print Level          = 1

	IRREP	# MOs	# FZDC	# DOCC	# SOCC	# VIRT	# FZVR
	-----	-----	------	------	------	------	------
	 A1	   40	    0	    4	    0	    36	    0
	 A2	   20	    0	    0	    0	    20	    0
	 B1	   30	    0	    2	    0	    28	    0
	 B2	   30	    0	    2	    0	    28	    0
	Transforming integrals...
	IWL integrals will be deleted.
	(OO|OO)...
	Presorting SO-basis two-electron integrals.
	Sorting File: SO Ints (nn|nn) nbuckets = 1
	Constructing frozen core operators
	Starting first half-transformation.
	Sorting half-transformed integrals.
	First half integral transformation complete.
	Starting second half-transformation.
	Two-electron integral transformation complete.
	(OO|OV)...
	Starting second half-transformation.
	Two-electron integral transformation complete.
	(OO|VV)...
	Starting second half-transformation.
	Two-electron integral transformation complete.
	(OV|OO)...
	Starting first half-transformation.
	Sorting half-transformed integrals.
	First half integral transformation complete.
	Starting second half-transformation.
	Two-electron integral transformation complete.
	(OV|OV)...
	Starting second half-transformation.
	Two-electron integral transformation complete.
	(OV|VV)...
	Starting second half-transformation.
	Two-electron integral transformation complete.
	(VV|OO)...
	Starting first half-transformation.
	Sorting half-transformed integrals.
	First half integral transformation complete.
	Starting second half-transformation.
	Two-electron integral transformation complete.
	(VV|OV)...
	Starting second half-transformation.
	Two-electron integral transformation complete.
	(VV|VV)...
	Starting second half-transformation.
	Two-electron integral transformation complete.
	Frozen core energy     =      0.00000000000000

	Size of irrep 0 of <ab|cd> integrals:     10.654 (MW) /     85.230 (MB)
	Size of irrep 1 of <ab|cd> integrals:      9.048 (MW) /     72.385 (MB)
	Size of irrep 2 of <ab|cd> integrals:      9.834 (MW) /     78.676 (MB)
	Size of irrep 3 of <ab|cd> integrals:      9.834 (MW) /     78.676 (MB)
	Total:                                    39.371 (MW) /    314.966 (MB)

	Size of irrep 0 of <ia|bc> integrals:      0.836 (MW) /      6.685 (MB)
	Size of irrep 1 of <ia|bc> integrals:      0.578 (MW) /      4.620 (MB)
	Size of irrep 2 of <ia|bc> integrals:      0.702 (MW) /      5.620 (MB)
	Size of irrep 3 of <ia|bc> integrals:      0.702 (MW) /      5.620 (MB)
	Total:                                     2.818 (MW) /     22.544 (MB)

	Size of irrep 0 of tijab amplitudes:       0.078 (MW) /      0.627 (MB)
	Size of irrep 1 of tijab amplitudes:       0.024 (MW) /      0.193 (MB)
	Size of irrep 2 of tijab amplitudes:       0.050 (MW) /      0.401 (MB)
	Size of irrep 3 of tijab amplitudes:       0.050 (MW) /      0.401 (MB)
	Total:                                     0.203 (MW) /      1.622 (MB)

	Nuclear Rep. energy          =     24.67479226298466
	SCF energy                   =    -58.35697778955310
	One-electron energy          =   -125.80043295308188
	Two-electron energy          =     42.76866290054368
	Reference energy             =    -58.35697778955354

*** tstop() called on na21 at Fri Jun  6 15:47:44 2025
Module time:
	user time   =       3.37 seconds =       0.06 minutes
	system time =       0.81 seconds =       0.01 minutes
	total time  =          2 seconds =       0.03 minutes
Total time:
	user time   =      36.58 seconds =       0.61 minutes
	system time =       1.96 seconds =       0.03 minutes
	total time  =          8 seconds =       0.13 minutes
            **************************
            *                        *
            *        CCENERGY        *
            *                        *
            **************************

    Nuclear Rep. energy (wfn)     =   24.674792262984663
    SCF energy          (wfn)     =  -58.356977789553099
    Reference energy    (file100) =  -58.356977789553540

    Input parameters:
    -----------------
    Wave function   =     CCSD_T
    Reference wfn   =     RHF
    Brueckner       =     No
    Memory (Mbytes) =     100000.0
    Maxiter         =     50
    R_Convergence   =     1.0e-07
    E_Convergence   =     1.0e-06
    Restart         =     Yes
    DIIS            =     Yes
    AO Basis        =     NONE
    ABCD            =     NEW
    Cache Level     =     2
    Cache Type      =     LOW
    Print Level     =     1
    Num. of threads =     40
    # Amps to Print =     10
    Print MP2 Amps? =     No
    Analyze T2 Amps =     No
    Print Pair Ener =     No
    Local CC        =     No
    SCS-MP2         =     False
    SCSN-MP2        =     False
    SCS-CCSD        =     False

MP2 correlation energy -0.2613560888949118
                Solving CC Amplitude Equations
                ------------------------------
  Iter             Energy              RMS        T1Diag      D1Diag    New D1Diag    D2Diag
  ----     ---------------------    ---------   ----------  ----------  ----------   --------
     0        -0.261356088894912    0.000e+00    0.000000    0.000000    0.000000    0.208408
     1        -0.262142728900037    8.472e-02    0.012896    0.031708    0.031708    0.212090
     2        -0.271604193737003    4.294e-02    0.013546    0.033501    0.033501    0.228009
     3        -0.275483087382697    2.085e-02    0.017963    0.043313    0.043313    0.239680
     4        -0.275415773374676    7.700e-03    0.019608    0.047286    0.047286    0.242585
     5        -0.275653077223290    3.905e-03    0.020972    0.050334    0.050334    0.244276
     6        -0.275656786331576    1.245e-03    0.021375    0.051415    0.051415    0.244187
     7        -0.275656098709099    3.093e-04    0.021460    0.051639    0.051639    0.244155
     8        -0.275657220332772    9.241e-05    0.021480    0.051686    0.051686    0.244153
     9        -0.275655786853367    2.650e-05    0.021482    0.051686    0.051686    0.244148
    10        -0.275655879087401    9.227e-06    0.021483    0.051683    0.051683    0.244147
    11        -0.275655923346788    3.997e-06    0.021483    0.051682    0.051682    0.244146
    12        -0.275656012537027    1.640e-06    0.021483    0.051681    0.051681    0.244147
    13        -0.275656025757922    4.517e-07    0.021483    0.051681    0.051681    0.244147
    14        -0.275656025354448    1.701e-07    0.021483    0.051681    0.051681    0.244147
    15        -0.275656023678593    8.063e-08    0.021483    0.051681    0.051681    0.244147

    Iterations converged.


    Largest TIA Amplitudes:
              2   0         0.0469961323
              3   1        -0.0288565095
              5  56        -0.0288565095
              7  84        -0.0288565095
              2   4        -0.0187356953
              3   3         0.0172037311
              5  57         0.0172037311
              7  85         0.0172037311
              7  87        -0.0157337020
              3   5         0.0157337020

    Largest TIjAb Amplitudes:
      3   3   2   2        -0.0873407151
      5   5  36  36        -0.0684512947
      7   7  36  36        -0.0684512947
      3   3   0   0        -0.0515077442
      5   5   0   0        -0.0515077442
      7   7   0   0        -0.0515077442
      5   5  56  56        -0.0445928216
      7   7  84  84        -0.0445928216
      3   3   2   6        -0.0435669637
      3   3   6   2        -0.0435669637

    SCF energy       (wfn)                    =  -58.356977789553099
    Reference energy (file100)                =  -58.356977789553540

    Opposite-spin MP2 correlation energy      =   -0.210343594501729
    Same-spin MP2 correlation energy          =   -0.051012494393183
    Singles MP2 correlation energy            =   -0.000000000000000
    MP2 correlation energy                    =   -0.261356088894912
      * MP2 total energy                      =  -58.618333878448453

    Opposite-spin CCSD correlation energy     =   -0.231805295394104
    Same-spin CCSD correlation energy         =   -0.043850728284484
    Singles CCSD correlation energy           =    0.000000000000000
    CCSD correlation energy                   =   -0.275656023678593
      * CCSD total energy                     =  -58.632633813232133

            **************************
            *                        *
            *        CCTRIPLES       *
            *                        *
            **************************


    Wave function   =    CCSD_T
    Reference wfn   =      RHF

    Nuclear Rep. energy (wfn)                =   24.674792262984663
    SCF energy          (wfn)                =  -58.356977789553099
    Reference energy    (file100)            =  -58.356977789553540
    CCSD energy         (file100)            =   -0.275656023678593
    Total CCSD energy   (file100)            =  -58.632633813232133

    Number of ijk index combinations:              120
    Memory available in words               :     12500000000
    Approx. words needed per explicit thread:          186624
    Number of threads for explicit ijk threading:   40

    (T) energy                                =   -0.025979587011005
      * CCSD(T) total energy                  =  -58.658613400243141


    Psi4 stopped on: Friday, 06 June 2025 03:47PM
    Psi4 wall time for execution: 0:00:12.10

*** Psi4 exiting successfully. Buy a developer a beer!
