
    -----------------------------------------------------------------------
          Psi4: An Open-Source Ab Initio Electronic Structure Package
                               Psi4 1.9.1 release

                         Git: Rev {} zzzzzzz 


    D. G. A. Smith, L. A. Burns, A. C. Simmonett, R. M. Parrish,
    M. C. Schieber, R. Galvelis, P. Kraus, H. Kruse, R. Di Remigio,
    A. Alenaizan, A. M. James, S. Lehtola, J. P. Misiewicz, M. Scheurer,
    R. A. Shaw, J. B. Schriber, Y. Xie, Z. L. Glick, D. A. Sirianni,
    J. S. O'Brien, J. M. Waldrop, A. Kumar, E. G. Hohenstein,
    B. P. Pritchard, B. R. Brooks, H. F. Schaefer III, A. Yu. Sokolov,
    K. Patkowski, A. E. DePrince III, U. Bozkaya, R. A. King,
    F. A. Evangelista, J. M. Turney, T. D. Crawford, C. D. Sherrill,
    J. Chem. Phys. 152(18) 184108 (2020). https://doi.org/10.1063/5.0006002

                            Additional Code Authors
    E. T. Seidl, C. L. Janssen, E. F. Valeev, M. L. Leininger,
    J. F. Gonthier, R. M. Richard, H. R. McAlexander, M. Saitow, X. Wang,
    P. Verma, M. H. Lechner, A. Jiang, S. Behnle, A. G. Heide,
    M. F. Herbst, and D. L. Poole

             Previous Authors, Complete List of Code Contributors,
                       and Citations for Specific Modules
    https://github.com/psi4/psi4/blob/master/codemeta.json
    https://github.com/psi4/psi4/graphs/contributors
    http://psicode.org/psi4manual/master/introduction.html#citing-psifour

    -----------------------------------------------------------------------


    Psi4 started on: Friday, 06 June 2025 03:47PM

    Process ID: 4043659
    Host:       na07
    PSIDATADIR: /software-nas/eb2024/easybuild/software/rocky/8.9/amd/zen4/software/PSI4/1.9.1-foss-2023b/share/psi4
    Memory:     500.0 MiB
    Threads:    40
    
  ==> Input File <==

--------------------------------------------------------------------------
memory 100Gb

molecule{
0 2
F     0.00000000  0.00000000  0.00000000
}

set reference rohf

energy("CCSD(T)/cc-pVTZ")
--------------------------------------------------------------------------

  Memory set to  93.132 GiB by Python driver.

Scratch directory: /scratch/pobleyef/203992/
   => Libint2 <=

    Primary   basis highest AM E, G, H:  5, 4, 3
    Auxiliary basis highest AM E, G, H:  6, 5, 4
    Onebody   basis highest AM E, G, H:  6, 5, 4
    Solid Harmonics ordering:            Gaussian

*** tstart() called on na07
*** at Fri Jun  6 15:47:38 2025

   => Loading Basis Set <=

    Name: CC-PVTZ
    Role: ORBITAL
    Keyword: BASIS
    atoms 1 entry F          line   300 file /software-nas/eb2024/easybuild/software/rocky/8.9/amd/zen4/software/PSI4/1.9.1-foss-2023b/share/psi4/basis/cc-pvtz.gbs 


         ---------------------------------------------------------
                                   SCF
               by Justin Turney, Rob Parrish, Andy Simmonett
                          and Daniel G. A. Smith
                             ROHF Reference
                       40 Threads,  95367 MiB Core
         ---------------------------------------------------------

  ==> Geometry <==

    Molecular point group: d2h
    Geometry (in Angstrom), charge = 0, multiplicity = 2:

       Center              X                  Y                   Z               Mass       
    ------------   -----------------  -----------------  -----------------  -----------------
         F            0.000000000000     0.000000000000     0.000000000000    18.998403162730

  Running in d2h symmetry.

  Rotational constants: A = ************  B = ************  C = ************ [cm^-1]
  Rotational constants: A = ************  B = ************  C = ************ [MHz]
  Nuclear repulsion =    0.000000000000000

  Charge       = 0
  Multiplicity = 2
  Electrons    = 9
  Nalpha       = 5
  Nbeta        = 4

  ==> Algorithm <==

  SCF Algorithm Type is PK.
  DIIS enabled.
  MOM disabled.
  Fractional occupation disabled.
  Guess Type is CORE.
  Energy threshold   = 1.00e-08
  Density threshold  = 1.00e-08
  Integral threshold = 1.00e-12

  ==> Primary Basis <==

  Basis Set: CC-PVTZ
    Blend: CC-PVTZ
    Number of shells: 10
    Number of basis functions: 30
    Number of Cartesian functions: 35
    Spherical Harmonics?: true
    Max angular momentum: 3

  ==> Integral Setup <==

  Using in-core PK algorithm.
   Calculation information:
      Number of atoms:                   1
      Number of AO shells:              10
      Number of primitives:             26
      Number of atomic orbitals:        35
      Number of basis functions:        30

      Integral cutoff                 1.00e-12
      Number of threads:                40

  Performing in-core PK
  Using 216690 doubles for integral storage.
  We computed 13089 shell quartets total.
  Whereas there are 1540 unique shell quartets.
   749.94 percent of shell quartets recomputed by reordering.

  ==> DiskJK: Disk-Based J/K Matrices <==

    J tasked:                  Yes
    K tasked:                  Yes
    wK tasked:                  No
    Memory [MiB]:            71525
    Schwarz Cutoff:          1E-12

    OpenMP threads:             40

  Minimum eigenvalue in the overlap matrix is 4.2493916239E-02.
  Reciprocal condition number of the overlap matrix is 1.9108629233E-02.
    Using symmetric orthogonalization.

  ==> Pre-Iterations <==

  SCF Guess: Core (One-Electron) Hamiltonian.

   -------------------------------------------------------
    Irrep   Nso     Nmo     Nalpha   Nbeta   Ndocc  Nsocc
   -------------------------------------------------------
     Ag         8       8       2       2       2       0
     B1g        2       2       0       0       0       0
     B2g        2       2       0       0       0       0
     B3g        2       2       0       0       0       0
     Au         1       1       0       0       0       0
     B1u        5       5       1       1       1       0
     B2u        5       5       1       0       0       1
     B3u        5       5       1       1       1       0
   -------------------------------------------------------
    Total      30      30       5       4       4       1
   -------------------------------------------------------

  ==> Iterations <==

                        Total Energy        Delta E     RMS |[F,P]|

   @ROHF iter   1:   -88.97440021998983   -8.89744e+01   4.44120e-01 DIIS
   @ROHF iter   2:   -95.19723105720536   -6.22283e+00   1.87358e-01 DIIS
   @ROHF iter   3:   -99.04318419702324   -3.84595e+00   8.13304e-02 DIIS
   @ROHF iter   4:   -99.38743998178113   -3.44256e-01   1.44874e-02 DIIS
   @ROHF iter   5:   -99.40092602600454   -1.34860e-02   2.98049e-04 DIIS
   @ROHF iter   6:   -99.40093474951354   -8.72351e-06   7.52255e-05 DIIS
   @ROHF iter   7:   -99.40093526054366   -5.11030e-07   1.00317e-05 DIIS
   @ROHF iter   8:   -99.40093527222159   -1.16779e-08   4.66537e-07 DIIS
   @ROHF iter   9:   -99.40093527223684   -1.52482e-11   5.42386e-08 DIIS
   @ROHF iter  10:   -99.40093527223701   -1.70530e-13   2.70861e-09 DIIS
  Energy and wave function converged.


  ==> Post-Iterations <==

    Orbital Energies [Eh]
    ---------------------

    Doubly Occupied:                                                      

       1Ag   -26.380100     2Ag    -1.570176     1B1u   -0.701961  
       1B3u   -0.701961  

    Singly Occupied:                                                      

       1B2u   -0.354702  

    Virtual:                                                              

       2B3u    0.911181     2B1u    0.911181     2B2u    0.911603  
       3Ag     1.155156     4Ag     2.211406     1B1g    2.215501  
       1B3g    2.215501     1B2g    2.227800     5Ag     2.227800  
       3B2u    4.999624     3B1u    5.011373     3B3u    5.011373  
       4B2u    7.295471     4B3u    7.302426     4B1u    7.302426  
       1Au     7.322999     5B2u    7.322999     5B1u    7.357534  
       5B3u    7.357534     6Ag     8.754079     2B1g    8.765027  
       2B3g    8.765027     2B2g    8.797612     7Ag     8.797612  
       8Ag     9.501055  

    Final Occupation by Irrep:
             Ag   B1g   B2g   B3g    Au   B1u   B2u   B3u 
    DOCC [     2,    0,    0,    0,    0,    1,    0,    1 ]
    SOCC [     0,    0,    0,    0,    0,    0,    1,    0 ]
    NA   [     2,    0,    0,    0,    0,    1,    1,    1 ]
    NB   [     2,    0,    0,    0,    0,    1,    0,    1 ]

  @ROHF Final Energy:   -99.40093527223701

   => Energetics <=

    Nuclear Repulsion Energy =              0.0000000000000000
    One-Electron Energy =                -139.2638665971656735
    Two-Electron Energy =                  39.8629313249286668
    Total Energy =                        -99.4009352722370068

Computation Completed


Properties will be evaluated at   0.000000,   0.000000,   0.000000 [a0]

Properties computed using the SCF density matrix


 Multipole Moments:

 ------------------------------------------------------------------------------------
     Multipole            Electronic (a.u.)      Nuclear  (a.u.)        Total (a.u.)
 ------------------------------------------------------------------------------------

 L = 1.  Multiply by 2.5417464519 to convert [e a0] to [Debye]
 Dipole X            :          0.0000000            0.0000000            0.0000000
 Dipole Y            :          0.0000000            0.0000000            0.0000000
 Dipole Z            :          0.0000000            0.0000000            0.0000000
 Magnitude           :                                                    0.0000000

 ------------------------------------------------------------------------------------

*** tstop() called on na07 at Fri Jun  6 15:47:41 2025
Module time:
	user time   =      87.71 seconds =       1.46 minutes
	system time =       1.75 seconds =       0.03 minutes
	total time  =          3 seconds =       0.05 minutes
Total time:
	user time   =      87.71 seconds =       1.46 minutes
	system time =       1.75 seconds =       0.03 minutes
	total time  =          3 seconds =       0.05 minutes
 MINTS: Wrapper to libmints.
   by Justin Turney

   Calculation information:
      Number of threads:                40
      Number of atoms:                   1
      Number of AO shells:              10
      Number of SO shells:              10
      Number of primitives:             26
      Number of atomic orbitals:        35
      Number of basis functions:        30

      Number of irreps:                  8
      Integral cutoff                 1.00e-12
      Number of functions per irrep: [   8    2    2    2    1    5    5    5 ]

 OEINTS: Overlap, kinetic, potential, dipole, and quadrupole integrals
         stored in file 35.

      Computing two-electron integrals...done
      Computed 11764 non-zero two-electron integrals.
        Stored in file 33.


*** tstart() called on na07
*** at Fri Jun  6 15:47:41 2025


	Wfn Parameters:
	--------------------
	Wavefunction         = CCSD_T
	Number of irreps     = 8
	Number of MOs        = 30
	Number of active MOs = 30
	AO-Basis             = NONE
	Semicanonical        = true
	Reference            = ROHF changed to UHF for semicanonical orbitals
	Print Level          = 1

	IRREP	# MOs	# FZDC	# DOCC	# SOCC	# VIRT	# FZVR
	-----	-----	------	------	------	------	------
	 Ag	   8	    0	    2	    0	    6	    0
	 B1g	   2	    0	    0	    0	    2	    0
	 B2g	   2	    0	    0	    0	    2	    0
	 B3g	   2	    0	    0	    0	    2	    0
	 Au	   1	    0	    0	    0	    1	    0
	 B1u	   5	    0	    1	    0	    4	    0
	 B2u	   5	    0	    0	    1	    4	    0
	 B3u	   5	    0	    1	    0	    4	    0
	Transforming integrals...
	IWL integrals will be deleted.
	(OO|OO)...
	Presorting SO-basis two-electron integrals.
	Sorting File: SO Ints (nn|nn) nbuckets = 1
	Constructing frozen core operators
	Starting AA/AB first half-transformation.
	Sorting AA/AB half-transformed integrals.
	Starting BB first half-transformation.
	Sorting BB half-transformed integrals.
	First half integral transformation complete.
	Starting AA second half-transformation.
	Starting AB second half-transformation.
	Starting BB second half-transformation.
	Two-electron integral transformation complete.
	(OO|OV)...
	Starting AA second half-transformation.
	Starting AB second half-transformation.
	Starting BB second half-transformation.
	Two-electron integral transformation complete.
	(OO|VV)...
	Starting AA second half-transformation.
	Starting AB second half-transformation.
	Starting BB second half-transformation.
	Two-electron integral transformation complete.
	(OV|OO)...
	Starting AA/AB first half-transformation.
	Sorting AA/AB half-transformed integrals.
	Starting BB first half-transformation.
	Sorting BB half-transformed integrals.
	First half integral transformation complete.
	Starting AA second half-transformation.
	Starting AB second half-transformation.
	Starting BB second half-transformation.
	Two-electron integral transformation complete.
	(OV|OV)...
	Starting AA second half-transformation.
	Starting AB second half-transformation.
	Starting BB second half-transformation.
	Two-electron integral transformation complete.
	(OV|VV)...
	Starting AA second half-transformation.
	Starting AB second half-transformation.
	Starting BB second half-transformation.
	Two-electron integral transformation complete.
	(VV|OO)...
	Starting AA/AB first half-transformation.
	Sorting AA/AB half-transformed integrals.
	Starting BB first half-transformation.
	Sorting BB half-transformed integrals.
	First half integral transformation complete.
	Starting AA second half-transformation.
	Starting AB second half-transformation.
	Starting BB second half-transformation.
	Two-electron integral transformation complete.
	(VV|OV)...
	Starting AA second half-transformation.
	Starting AB second half-transformation.
	Starting BB second half-transformation.
	Two-electron integral transformation complete.
	(VV|VV)...
	Starting AA second half-transformation.
	Starting AB second half-transformation.
	Starting BB second half-transformation.
	Two-electron integral transformation complete.
	Frozen core energy     =      0.00000000000000

	Size of irrep 0 of <AB|CD> integrals:      0.001 (MW) /      0.010 (MB)
	Size of irrep 1 of <AB|CD> integrals:      0.001 (MW) /      0.010 (MB)
	Size of irrep 2 of <AB|CD> integrals:      0.001 (MW) /      0.010 (MB)
	Size of irrep 3 of <AB|CD> integrals:      0.001 (MW) /      0.010 (MB)
	Size of irrep 4 of <AB|CD> integrals:      0.001 (MW) /      0.007 (MB)
	Size of irrep 5 of <AB|CD> integrals:      0.002 (MW) /      0.014 (MB)
	Size of irrep 6 of <AB|CD> integrals:      0.002 (MW) /      0.014 (MB)
	Size of irrep 7 of <AB|CD> integrals:      0.002 (MW) /      0.014 (MB)
	Total:                                     0.011 (MW) /      0.091 (MB)

	Size of irrep 0 of <ab|cd> integrals:      0.002 (MW) /      0.013 (MB)
	Size of irrep 1 of <ab|cd> integrals:      0.002 (MW) /      0.013 (MB)
	Size of irrep 2 of <ab|cd> integrals:      0.001 (MW) /      0.011 (MB)
	Size of irrep 3 of <ab|cd> integrals:      0.002 (MW) /      0.013 (MB)
	Size of irrep 4 of <ab|cd> integrals:      0.001 (MW) /      0.008 (MB)
	Size of irrep 5 of <ab|cd> integrals:      0.002 (MW) /      0.015 (MB)
	Size of irrep 6 of <ab|cd> integrals:      0.002 (MW) /      0.018 (MB)
	Size of irrep 7 of <ab|cd> integrals:      0.002 (MW) /      0.015 (MB)
	Total:                                     0.013 (MW) /      0.107 (MB)

	Size of irrep 0 of <Ab|Cd> integrals:      0.010 (MW) /      0.082 (MB)
	Size of irrep 1 of <Ab|Cd> integrals:      0.006 (MW) /      0.046 (MB)
	Size of irrep 2 of <Ab|Cd> integrals:      0.005 (MW) /      0.043 (MB)
	Size of irrep 3 of <Ab|Cd> integrals:      0.006 (MW) /      0.046 (MB)
	Size of irrep 4 of <Ab|Cd> integrals:      0.004 (MW) /      0.031 (MB)
	Size of irrep 5 of <Ab|Cd> integrals:      0.007 (MW) /      0.059 (MB)
	Size of irrep 6 of <Ab|Cd> integrals:      0.008 (MW) /      0.065 (MB)
	Size of irrep 7 of <Ab|Cd> integrals:      0.007 (MW) /      0.059 (MB)
	Total:                                     0.054 (MW) /      0.431 (MB)

	Size of irrep 0 of <IA|BC> integrals:      0.002 (MW) /      0.019 (MB)
	Size of irrep 1 of <IA|BC> integrals:      0.001 (MW) /      0.007 (MB)
	Size of irrep 2 of <IA|BC> integrals:      0.001 (MW) /      0.007 (MB)
	Size of irrep 3 of <IA|BC> integrals:      0.001 (MW) /      0.007 (MB)
	Size of irrep 4 of <IA|BC> integrals:      0.000 (MW) /      0.004 (MB)
	Size of irrep 5 of <IA|BC> integrals:      0.002 (MW) /      0.012 (MB)
	Size of irrep 6 of <IA|BC> integrals:      0.002 (MW) /      0.012 (MB)
	Size of irrep 7 of <IA|BC> integrals:      0.002 (MW) /      0.012 (MB)
	Total:                                     0.010 (MW) /      0.081 (MB)

	Size of irrep 0 of <ia|bc> integrals:      0.002 (MW) /      0.017 (MB)
	Size of irrep 1 of <ia|bc> integrals:      0.001 (MW) /      0.006 (MB)
	Size of irrep 2 of <ia|bc> integrals:      0.001 (MW) /      0.007 (MB)
	Size of irrep 3 of <ia|bc> integrals:      0.001 (MW) /      0.006 (MB)
	Size of irrep 4 of <ia|bc> integrals:      0.000 (MW) /      0.003 (MB)
	Size of irrep 5 of <ia|bc> integrals:      0.001 (MW) /      0.011 (MB)
	Size of irrep 6 of <ia|bc> integrals:      0.001 (MW) /      0.011 (MB)
	Size of irrep 7 of <ia|bc> integrals:      0.001 (MW) /      0.011 (MB)
	Total:                                     0.009 (MW) /      0.073 (MB)

	Size of irrep 0 of <Ia|Bc> integrals:      0.003 (MW) /      0.020 (MB)
	Size of irrep 1 of <Ia|Bc> integrals:      0.001 (MW) /      0.009 (MB)
	Size of irrep 2 of <Ia|Bc> integrals:      0.001 (MW) /      0.008 (MB)
	Size of irrep 3 of <Ia|Bc> integrals:      0.001 (MW) /      0.009 (MB)
	Size of irrep 4 of <Ia|Bc> integrals:      0.000 (MW) /      0.004 (MB)
	Size of irrep 5 of <Ia|Bc> integrals:      0.002 (MW) /      0.012 (MB)
	Size of irrep 6 of <Ia|Bc> integrals:      0.002 (MW) /      0.014 (MB)
	Size of irrep 7 of <Ia|Bc> integrals:      0.002 (MW) /      0.012 (MB)
	Total:                                     0.011 (MW) /      0.088 (MB)

	Size of irrep 0 of <iA|bC> integrals:      0.002 (MW) /      0.016 (MB)
	Size of irrep 1 of <iA|bC> integrals:      0.001 (MW) /      0.005 (MB)
	Size of irrep 2 of <iA|bC> integrals:      0.001 (MW) /      0.007 (MB)
	Size of irrep 3 of <iA|bC> integrals:      0.001 (MW) /      0.005 (MB)
	Size of irrep 4 of <iA|bC> integrals:      0.000 (MW) /      0.003 (MB)
	Size of irrep 5 of <iA|bC> integrals:      0.001 (MW) /      0.011 (MB)
	Size of irrep 6 of <iA|bC> integrals:      0.001 (MW) /      0.009 (MB)
	Size of irrep 7 of <iA|bC> integrals:      0.001 (MW) /      0.011 (MB)
	Total:                                     0.008 (MW) /      0.068 (MB)

	Size of irrep 0 of tIjAb amplitudes:       0.001 (MW) /      0.005 (MB)
	Size of irrep 1 of tIjAb amplitudes:       0.000 (MW) /      0.001 (MB)
	Size of irrep 2 of tIjAb amplitudes:       0.000 (MW) /      0.001 (MB)
	Size of irrep 3 of tIjAb amplitudes:       0.000 (MW) /      0.001 (MB)
	Size of irrep 4 of tIjAb amplitudes:       0.000 (MW) /      0.000 (MB)
	Size of irrep 5 of tIjAb amplitudes:       0.000 (MW) /      0.003 (MB)
	Size of irrep 6 of tIjAb amplitudes:       0.000 (MW) /      0.001 (MB)
	Size of irrep 7 of tIjAb amplitudes:       0.000 (MW) /      0.003 (MB)
	Total:                                     0.002 (MW) /      0.014 (MB)

	Nuclear Rep. energy          =      0.00000000000000
	SCF energy                   =    -99.40093527223701
	One-electron energy          =   -139.26386644053116
	Two-electron (AA) energy     =      9.34404449281705
	Two-electron (BB) energy     =      5.80577148505097
	Two-electron (AB) energy     =     24.71311519042616
	Two-electron energy          =     39.86293116829417
	Reference energy             =    -99.40093527223698

*** tstop() called on na07 at Fri Jun  6 15:47:41 2025
Module time:
	user time   =       0.03 seconds =       0.00 minutes
	system time =       0.05 seconds =       0.00 minutes
	total time  =          0 seconds =       0.00 minutes
Total time:
	user time   =      88.69 seconds =       1.48 minutes
	system time =       1.91 seconds =       0.03 minutes
	total time  =          3 seconds =       0.05 minutes
            **************************
            *                        *
            *        CCENERGY        *
            *                        *
            **************************

    Nuclear Rep. energy (wfn)     =    0.000000000000000
    SCF energy          (wfn)     =  -99.400935272237007
    Reference energy    (file100) =  -99.400935272236978

    Input parameters:
    -----------------
    Wave function   =     CCSD_T
    Reference wfn   =     ROHF changed to UHF for Semicanonical Orbitals
    Brueckner       =     No
    Memory (Mbytes) =     100000.0
    Maxiter         =     50
    R_Convergence   =     1.0e-07
    E_Convergence   =     1.0e-06
    Restart         =     Yes
    DIIS            =     Yes
    AO Basis        =     NONE
    ABCD            =     NEW
    Cache Level     =     2
    Cache Type      =     LRU
    Print Level     =     1
    Num. of threads =     40
    # Amps to Print =     10
    Print MP2 Amps? =     No
    Analyze T2 Amps =     No
    Print Pair Ener =     No
    Local CC        =     No
    SCS-MP2         =     False
    SCSN-MP2        =     False
    SCS-CCSD        =     False

MP2 correlation energy -0.2168416474429692
                Solving CC Amplitude Equations
                ------------------------------
  Iter             Energy              RMS        T1Diag      D1Diag    New D1Diag    D2Diag
  ----     ---------------------    ---------   ----------  ----------  ----------   --------
     0        -0.216881937646042    0.000e+00    0.009614    0.000000    0.000000    0.000000
     1        -0.224652019351516    2.240e-02    0.011433    0.000000    0.000000    0.000000
     2        -0.227343335614196    6.428e-03    0.011982    0.000000    0.000000    0.000000
     3        -0.227557633776256    2.169e-03    0.012172    0.000000    0.000000    0.000000
     4        -0.227523864588333    7.890e-04    0.012153    0.000000    0.000000    0.000000
     5        -0.227543134174216    2.015e-04    0.012143    0.000000    0.000000    0.000000
     6        -0.227542916064354    4.282e-05    0.012137    0.000000    0.000000    0.000000
     7        -0.227543108977044    8.933e-06    0.012135    0.000000    0.000000    0.000000
     8        -0.227543087530849    1.618e-06    0.012135    0.000000    0.000000    0.000000
     9        -0.227543107421614    2.787e-07    0.012135    0.000000    0.000000    0.000000
    10        -0.227543104182515    7.778e-08    0.012135    0.000000    0.000000    0.000000

    Iterations converged.


    Largest TIA Amplitudes:
              1   1         0.0189778137
              1   3        -0.0062215547
              1   0        -0.0054344326
              3  17        -0.0044806494
              2  14         0.0043234074
              4  22         0.0043234074
              2  15         0.0038393564
              4  23         0.0038393564
              3  18         0.0033284993
              2  13         0.0030372197

    Largest Tia Amplitudes:
              1   2         0.0148300931
              2  13         0.0134402508
              3  22         0.0134402508
              1   0        -0.0113200057
              1   4        -0.0049003338
              2  14         0.0033731779
              3  23        -0.0033731779
              2  15        -0.0029869049
              3  24        -0.0029869049
              1   5         0.0009620395

    Largest TIJAB Amplitudes:
      4   2  21  13        -0.0222950695
      4   3  21  17        -0.0220256922
      3   2  17  13        -0.0220256922
      4   2   8   2        -0.0188397779
      4   3   6   1         0.0154652717
      3   2  10   1        -0.0154652717
      2   1  13   0         0.0128511915
      4   1  21   0         0.0128511915
      3   1  17   0         0.0126919804
      4   3   6   2        -0.0094329284

    Largest Tijab Amplitudes:
      3   2  22  13        -0.0228051403
      3   2   8   1         0.0188268715
      2   1  17  10        -0.0134272497
      3   1  17   6        -0.0134272497
      2   1  13   0         0.0125056212
      3   1  22   0         0.0125056212
      3   2  10   6         0.0094101585
      3   2  22  14         0.0083491785
      3   2  23  13        -0.0083491785
      3   2  23  14         0.0076847799

    Largest TIjAb Amplitudes:
      2   2  13  13         0.0409384791
      4   3  21  22         0.0409384791
      3   1   1  17        -0.0308253346
      2   3  13  22         0.0294884560
      4   2  21  13         0.0294884560
      3   3  17  22         0.0286805346
      3   2  17  13         0.0286805346
      2   1  10  17         0.0265711569
      4   1   6  17         0.0265711569
      1   2   0  13        -0.0241251580

    SCF energy       (wfn)                    =  -99.400935272237007
    Reference energy (file100)                =  -99.400935272236978

    Opposite-spin MP2 correlation energy      =   -0.161422292665977
    Same-spin MP2 correlation energy          =   -0.051960104286966
    Singles MP2 correlation energy            =   -0.003459250490027
    MP2 correlation energy                    =   -0.216841647442969
      * MP2 total energy                      =  -99.617776919679955

    Opposite-spin CCSD correlation energy     =   -0.174146127823084
    Same-spin CCSD correlation energy         =   -0.049696231099733
    Singles CCSD correlation energy           =   -0.003700745259698
    CCSD correlation energy                   =   -0.227543104182515
      * CCSD total energy                     =  -99.628478376419494

            **************************
            *                        *
            *        CCTRIPLES       *
            *                        *
            **************************


    Wave function   =    CCSD_T
    Reference wfn   =    ROHF changed to UHF for Semicanonical Orbitals

    Nuclear Rep. energy (wfn)                =    0.000000000000000
    SCF energy          (wfn)                =  -99.400935272237007
    Reference energy    (file100)            =  -99.400935272236978
    CCSD energy         (file100)            =   -0.227543104182515
    Total CCSD energy   (file100)            =  -99.628478376419494

    Number of ijk index combinations:
    Spin Case AAA:                                  10
    Spin Case BBB:                                   4
    Spin Case AAB:                                  40
    Spin Case ABB:                                  30
    AAA (T) energy                             =   -0.000138943503469
    BBB (T) energy                             =   -0.000027343049929
    AAB (T) energy                             =   -0.002188379847594
    ABB (T) energy                             =   -0.001363488340204
    (T) energy                                   =   -0.003718154741195
      * CCSD(T) total energy                     =  -99.632196531160687


    Psi4 stopped on: Friday, 06 June 2025 03:47PM
    Psi4 wall time for execution: 0:00:03.34

*** Psi4 exiting successfully. Buy a developer a beer!
