
    -----------------------------------------------------------------------
          Psi4: An Open-Source Ab Initio Electronic Structure Package
                               Psi4 1.9.1 release

                         Git: Rev {} zzzzzzz 


    D. G. A. Smith, L. A. Burns, A. C. Simmonett, R. M. Parrish,
    M. C. Schieber, R. Galvelis, P. Kraus, H. Kruse, R. Di Remigio,
    A. Alenaizan, A. M. James, S. Lehtola, J. P. Misiewicz, M. Scheurer,
    R. A. Shaw, J. B. Schriber, Y. Xie, Z. L. Glick, D. A. Sirianni,
    J. S. O'Brien, J. M. Waldrop, A. Kumar, E. G. Hohenstein,
    B. P. Pritchard, B. R. Brooks, H. F. Schaefer III, A. Yu. Sokolov,
    K. Patkowski, A. E. DePrince III, U. Bozkaya, R. A. King,
    F. A. Evangelista, J. M. Turney, T. D. Crawford, C. D. Sherrill,
    J. Chem. Phys. 152(18) 184108 (2020). https://doi.org/10.1063/5.0006002

                            Additional Code Authors
    E. T. Seidl, C. L. Janssen, E. F. Valeev, M. L. Leininger,
    J. F. Gonthier, R. M. Richard, H. R. McAlexander, M. Saitow, X. Wang,
    P. Verma, M. H. Lechner, A. Jiang, S. Behnle, A. G. Heide,
    M. F. Herbst, and D. L. Poole

             Previous Authors, Complete List of Code Contributors,
                       and Citations for Specific Modules
    https://github.com/psi4/psi4/blob/master/codemeta.json
    https://github.com/psi4/psi4/graphs/contributors
    http://psicode.org/psi4manual/master/introduction.html#citing-psifour

    -----------------------------------------------------------------------


    Psi4 started on: Wednesday, 04 June 2025 03:03PM

    Process ID: 1627266
    Host:       na11
    PSIDATADIR: /software-nas/eb2024/easybuild/software/rocky/8.9/amd/zen4/software/PSI4/1.9.1-foss-2023b/share/psi4
    Memory:     500.0 MiB
    Threads:    120
    
  ==> Input File <==

--------------------------------------------------------------------------
memory 600Gb

molecule{
0 1
Si     0.00000000  0.00000000  0.00000000
F     0.91020186  -0.91020186  0.91020186
F     -0.91020186  0.91020186  0.91020186
F     -0.91020186  -0.91020186  -0.91020186
F     0.91020186  0.91020186  -0.91020186
}

set reference rhf

energy("CCSD(T)/def2-QZVP")
--------------------------------------------------------------------------

  Memory set to 558.794 GiB by Python driver.

Scratch directory: /scratch/pobleyef/202753/
   => Libint2 <=

    Primary   basis highest AM E, G, H:  5, 4, 3
    Auxiliary basis highest AM E, G, H:  6, 5, 4
    Onebody   basis highest AM E, G, H:  6, 5, 4
    Solid Harmonics ordering:            Gaussian

*** tstart() called on na11
*** at Wed Jun  4 15:03:19 2025

   => Loading Basis Set <=

    Name: DEF2-QZVP
    Role: ORBITAL
    Keyword: BASIS
    atoms 1   entry SI         line   614 file /software-nas/eb2024/easybuild/software/rocky/8.9/amd/zen4/software/PSI4/1.9.1-foss-2023b/share/psi4/basis/def2-qzvp.gbs 
    atoms 2-5 entry F          line   338 file /software-nas/eb2024/easybuild/software/rocky/8.9/amd/zen4/software/PSI4/1.9.1-foss-2023b/share/psi4/basis/def2-qzvp.gbs 


         ---------------------------------------------------------
                                   SCF
               by Justin Turney, Rob Parrish, Andy Simmonett
                          and Daniel G. A. Smith
                              RHF Reference
                      120 Threads, 572204 MiB Core
         ---------------------------------------------------------

  ==> Geometry <==

    Molecular point group: c2v
    Full point group: Td

    Geometry (in Angstrom), charge = 0, multiplicity = 1:

       Center              X                  Y                   Z               Mass       
    ------------   -----------------  -----------------  -----------------  -----------------
         SI          -0.000000000000    -0.000000000000    -0.000000000000    27.976926534650
         F            1.287219814909     0.000000000000     0.910201860000    18.998403162730
         F           -1.287219814909    -0.000000000000     0.910201860000    18.998403162730
         F            0.000000000000    -1.287219814909    -0.910201860000    18.998403162730
         F           -0.000000000000     1.287219814909    -0.910201860000    18.998403162730

  Running in c2v symmetry.

  Rotational constants: A =      0.13388  B =      0.13388  C =      0.13388 [cm^-1]
  Rotational constants: A =   4013.60543  B =   4013.60543  C =   4013.60543 [MHz]
  Nuclear repulsion =  269.071401265344662

  Charge       = 0
  Multiplicity = 1
  Electrons    = 50
  Nalpha       = 25
  Nbeta        = 25

  ==> Algorithm <==

  SCF Algorithm Type is PK.
  DIIS enabled.
  MOM disabled.
  Fractional occupation disabled.
  Guess Type is SAD.
  Energy threshold   = 1.00e-08
  Density threshold  = 1.00e-08
  Integral threshold = 1.00e-12

  ==> Primary Basis <==

  Basis Set: DEF2-QZVP
    Blend: DEF2-QZVP
    Number of shells: 90
    Number of basis functions: 298
    Number of Cartesian functions: 374
    Spherical Harmonics?: true
    Max angular momentum: 4

  ==> Integral Setup <==

  Using in-core PK algorithm.
   Calculation information:
      Number of atoms:                   5
      Number of AO shells:              90
      Number of primitives:            157
      Number of atomic orbitals:       374
      Number of basis functions:       298

      Integral cutoff                 1.00e-12
      Number of threads:               120

  Performing in-core PK
  Using 1984836152 doubles for integral storage.
  We computed 23782421 shell quartets total.
  Whereas there are 8386560 unique shell quartets.
   183.58 percent of shell quartets recomputed by reordering.

  ==> DiskJK: Disk-Based J/K Matrices <==

    J tasked:                  Yes
    K tasked:                  Yes
    wK tasked:                  No
    Memory [MiB]:           429153
    Schwarz Cutoff:          1E-12

    OpenMP threads:            120

  Minimum eigenvalue in the overlap matrix is 2.5228346841E-04.
  Reciprocal condition number of the overlap matrix is 4.1377503057E-05.
    Using symmetric orthogonalization.

  ==> Pre-Iterations <==

  SCF Guess: Superposition of Atomic Densities via on-the-fly atomic UHF (no occupation information).

   -------------------------
    Irrep   Nso     Nmo    
   -------------------------
     A1       104     104 
     A2        48      48 
     B1        73      73 
     B2        73      73 
   -------------------------
    Total     298     298
   -------------------------

  ==> Iterations <==

                        Total Energy        Delta E     RMS |[F,P]|

   @RHF iter SAD:  -686.00361499773612   -6.86004e+02   0.00000e+00 
   @RHF iter   1:  -687.10720287083518   -1.10359e+00   3.78368e-03 ADIIS/DIIS
   @RHF iter   2:  -687.17319826868345   -6.59954e-02   2.43357e-03 ADIIS/DIIS
   @RHF iter   3:  -687.20731848991375   -3.41202e-02   1.41126e-04 ADIIS/DIIS
   @RHF iter   4:  -687.20753697981422   -2.18490e-04   3.14587e-05 DIIS
   @RHF iter   5:  -687.20754968405868   -1.27042e-05   6.84262e-06 DIIS
   @RHF iter   6:  -687.20755068336121   -9.99303e-07   1.46487e-06 DIIS
   @RHF iter   7:  -687.20755073451539   -5.11542e-08   1.43129e-07 DIIS
   @RHF iter   8:  -687.20755073493899   -4.23597e-10   2.09387e-08 DIIS
   @RHF iter   9:  -687.20755073494661   -7.61702e-12   2.11446e-09 DIIS
  Energy and wave function converged.


  ==> Post-Iterations <==

    Orbital Energies [Eh]
    ---------------------

    Doubly Occupied:                                                      

       1A1   -68.937431     2A1   -26.338157     1B2   -26.338157  
       1B1   -26.338157     3A1   -26.338138     4A1    -6.267166  
       5A1    -4.377016     2B2    -4.377016     2B1    -4.377016  
       6A1    -1.668421     3B2    -1.633349     3B1    -1.633349  
       7A1    -1.633349     8A1    -0.856979     9A1    -0.778942  
       4B2    -0.778942     4B1    -0.778942     1A2    -0.727749  
      10A1    -0.727749     5B1    -0.711516     5B2    -0.711516  
      11A1    -0.711516     2A2    -0.679376     6B2    -0.679376  
       6B1    -0.679376  

    Virtual:                                                              

      12A1     0.116938     7B2     0.130956     7B1     0.130956  
      13A1     0.130956    14A1     0.314590     8B1     0.314590  
       8B2     0.314590    15A1     0.339715     9B2     0.339715  
       9B1     0.339715    16A1     0.355929     3A2     0.399263  
      17A1     0.399263    18A1     0.436639    19A1     0.506313  
      10B1     0.506313    10B2     0.506313     4A2     0.540951  
      11B1     0.540951    11B2     0.540951    20A1     0.591694  
       5A2     0.591694    21A1     0.625240    12B2     0.625240  
      12B1     0.625240    22A1     0.782172    13B2     0.782172  
      13B1     0.782172    23A1     0.826248     6A2     0.826248  
      24A1     0.889904    14B1     0.889904    14B2     0.889904  
      25A1     0.900682    15B2     0.956550    15B1     0.956550  
       7A2     0.956550    26A1     1.115018    27A1     1.244346  
      16B1     1.244346    16B2     1.244346    28A1     1.295959  
      17B2     1.295959    17B1     1.295959    29A1     1.361119  
      30A1     1.580292     8A2     1.580292     9A2     1.668056  
      18B2     1.668056    18B1     1.668056    10A2     1.813326  
      31A1     1.813326    32A1     1.829758    19B2     1.829758  
      19B1     1.829758    20B2     1.871294    20B1     1.871294  
      11A2     1.871294    33A1     1.941017    21B2     1.941017  
      21B1     1.941017    34A1     1.979268    22B2     1.979268  
      22B1     1.979268    23B2     2.044574    23B1     2.044574  
      12A2     2.044574    35A1     2.065543    13A2     2.065543  
      36A1     2.076579    37A1     2.090576    24B2     2.090576  
      24B1     2.090576    38A1     2.242306    25B2     2.242306  
      25B1     2.242306    39A1     2.374455    26B2     2.447811  
      26B1     2.447811    14A2     2.447811    27B2     2.540490  
      27B1     2.540490    40A1     2.540490    41A1     2.588346  
      15A2     2.588346    42A1     2.892120    28B2     2.892120  
      28B1     2.892120    16A2     2.975158    43A1     2.975158  
      44A1     3.079242    29B1     3.214332    29B2     3.214332  
      17A2     3.214332    45A1     3.246816    30B1     3.246816  
      30B2     3.246816    46A1     3.348718    47A1     3.859141  
      31B1     3.859141    31B2     3.859141    48A1     4.159948  
      18A2     4.478015    32B1     4.486779    32B2     4.486779  
      19A2     4.486779    49A1     4.514199    33B1     4.514199  
      33B2     4.514199    50A1     4.682293    20A2     4.684937  
      51A1     4.684937    34B1     4.720681    34B2     4.720681  
      52A1     4.720681    53A1     4.770951    35B2     4.770951  
      35B1     4.770951    36B2     4.817065    36B1     4.817065  
      21A2     4.817065    54A1     4.905090    55A1     5.050476  
      37B2     5.050476    37B1     5.050476    22A2     5.172845  
      56A1     5.172845    57A1     5.347458    38B2     5.347458  
      38B1     5.347458    23A2     5.467189    39B2     5.467189  
      39B1     5.467189    40B2     5.547701    24A2     5.547701  
      40B1     5.547701    58A1     5.714986    41B2     5.714986  
      41B1     5.714986    25A2     5.715316    59A1     5.715316  
      60A1     5.967982    61A1     5.985956    26A2     5.985956  
      42B1     6.065475    42B2     6.065475    62A1     6.065475  
      43B1     6.180031    43B2     6.180031    63A1     6.180031  
      44B2     6.253387    44B1     6.253387    27A2     6.253387  
      64A1     6.497052    28A2     6.497052    45B2     6.824131  
      45B1     6.824131    29A2     6.824131    46B2     7.037997  
      65A1     7.037997    46B1     7.037997    30A2     7.142519  
      66A1     7.142519    67A1     7.430258    68A1     7.574710  
      47B2     7.574710    47B1     7.574710    48B2     7.712476  
      48B1     7.712476    69A1     7.712476    70A1     8.060953  
      71A1    11.757687    49B2    11.757687    49B1    11.757687  
      50B1    11.891176    50B2    11.891176    31A2    11.891176  
      32A2    11.896755    51B2    11.915788    51B1    11.915788  
      72A1    11.915788    73A1    11.919580    33A2    11.919580  
      34A2    11.919711    52B2    11.919711    52B1    11.919711  
      53B1    11.925836    53B2    11.925836    74A1    11.925836  
      75A1    11.956069    76A1    11.969017    54B2    11.969017  
      54B1    11.969017    55B2    11.970946    55B1    11.970946  
      35A2    11.970946    36A2    11.993157    77A1    11.993157  
      78A1    12.043620    37A2    12.043620    56B1    12.049706  
      56B2    12.049706    79A1    12.049706    57B1    12.123476  
      57B2    12.123476    38A2    12.123476    80A1    12.180792  
      58B1    13.278681    58B2    13.278681    81A1    13.278681  
      39A2    15.182593    59B1    15.187304    59B2    15.187304  
      40A2    15.187304    82A1    15.217217    60B2    15.217217  
      60B1    15.217217    83A1    15.267344    61B1    15.334973  
      61B2    15.334973    84A1    15.334973    41A2    15.336027  
      62B2    15.336027    62B1    15.336027    85A1    15.429314  
      42A2    15.461030    86A1    15.461030    87A1    15.578135  
      63B1    15.578135    63B2    15.578135    43A2    15.645721  
      88A1    15.645721    89A1    15.729106    64B1    15.729106  
      64B2    15.729106    44A2    15.866107    65B2    15.866107  
      65B1    15.866107    90A1    16.246379    66B1    16.470797  
      66B2    16.470797    91A1    16.470797    67B2    16.507176  
      67B1    16.507176    45A2    16.507176    46A2    16.551173  
      92A1    16.551173    93A1    16.641638    68B1    16.641638  
      68B2    16.641638    47A2    16.839763    69B1    16.839763  
      69B2    16.839763    94A1    17.004594    70B2    17.004594  
      70B1    17.004594    48A2    17.046449    95A1    17.046449  
      96A1    17.152721    97A1    17.275151    71B2    17.275151  
      71B1    17.275151    98A1    18.116222    99A1    55.473140  
     100A1    55.710297    72B1    55.710297    72B2    55.710297  
     101A1    59.817836   102A1   288.389705    73B1   288.607171  
     103A1   288.607171    73B2   288.607171   104A1   320.547083  

    Final Occupation by Irrep:
             A1    A2    B1    B2 
    DOCC [    11,    2,    6,    6 ]
    NA   [    11,    2,    6,    6 ]
    NB   [    11,    2,    6,    6 ]

  @RHF Final Energy:  -687.20755073494661

   => Energetics <=

    Nuclear Repulsion Energy =            269.0714012653446616
    One-Electron Energy =               -1494.4004980628194517
    Two-Electron Energy =                 538.1215460625282958
    Total Energy =                       -687.2075507349466079

Computation Completed


Properties will be evaluated at   0.000000,   0.000000,   0.000000 [a0]

Properties computed using the SCF density matrix


 Multipole Moments:

 ------------------------------------------------------------------------------------
     Multipole            Electronic (a.u.)      Nuclear  (a.u.)        Total (a.u.)
 ------------------------------------------------------------------------------------

 L = 1.  Multiply by 2.5417464519 to convert [e a0] to [Debye]
 Dipole X            :          0.0000000            0.0000000            0.0000000
 Dipole Y            :          0.0000000            0.0000000            0.0000000
 Dipole Z            :          0.0000000            0.0000000            0.0000000
 Magnitude           :                                                    0.0000000

 ------------------------------------------------------------------------------------

*** tstop() called on na11 at Wed Jun  4 15:04:14 2025
Module time:
	user time   =    2090.44 seconds =      34.84 minutes
	system time =      14.97 seconds =       0.25 minutes
	total time  =         55 seconds =       0.92 minutes
Total time:
	user time   =    2090.44 seconds =      34.84 minutes
	system time =      14.97 seconds =       0.25 minutes
	total time  =         55 seconds =       0.92 minutes
 MINTS: Wrapper to libmints.
   by Justin Turney

   Calculation information:
      Number of threads:               120
      Number of atoms:                   5
      Number of AO shells:              90
      Number of SO shells:              56
      Number of primitives:            157
      Number of atomic orbitals:       374
      Number of basis functions:       298

      Number of irreps:                  4
      Integral cutoff                 1.00e-12
      Number of functions per irrep: [ 104   48   73   73 ]

 OEINTS: Overlap, kinetic, potential, dipole, and quadrupole integrals
         stored in file 35.

      Computing two-electron integrals...done
      Computed 195428244 non-zero two-electron integrals.
        Stored in file 33.


*** tstart() called on na11
*** at Wed Jun  4 15:04:32 2025


	Wfn Parameters:
	--------------------
	Wavefunction         = CCSD_T
	Number of irreps     = 4
	Number of MOs        = 298
	Number of active MOs = 298
	AO-Basis             = NONE
	Semicanonical        = false
	Reference            = RHF
	Print Level          = 1

	IRREP	# MOs	# FZDC	# DOCC	# SOCC	# VIRT	# FZVR
	-----	-----	------	------	------	------	------
	 A1	   104	    0	    11	    0	    93	    0
	 A2	   48	    0	    2	    0	    46	    0
	 B1	   73	    0	    6	    0	    67	    0
	 B2	   73	    0	    6	    0	    67	    0
	Transforming integrals...
	IWL integrals will be deleted.
	(OO|OO)...
	Presorting SO-basis two-electron integrals.
	Sorting File: SO Ints (nn|nn) nbuckets = 1
	Constructing frozen core operators
	Starting first half-transformation.
	Sorting half-transformed integrals.
	First half integral transformation complete.
	Starting second half-transformation.
	Two-electron integral transformation complete.
	(OO|OV)...
	Starting second half-transformation.
	Two-electron integral transformation complete.
	(OO|VV)...
	Starting second half-transformation.
	Two-electron integral transformation complete.
	(OV|OO)...
	Starting first half-transformation.
	Sorting half-transformed integrals.
	First half integral transformation complete.
	Starting second half-transformation.
	Two-electron integral transformation complete.
	(OV|OV)...
	Starting second half-transformation.
	Two-electron integral transformation complete.
	(OV|VV)...
	Starting second half-transformation.
	Two-electron integral transformation complete.
	(VV|OO)...
	Starting first half-transformation.
	Sorting half-transformed integrals.
	First half integral transformation complete.
	Starting second half-transformation.
	Two-electron integral transformation complete.
	(VV|OV)...
	Starting second half-transformation.
	Two-electron integral transformation complete.
	(VV|VV)...
	Starting second half-transformation.
	Two-electron integral transformation complete.
	Frozen core energy     =      0.00000000000000

	Size of irrep 0 of <ab|cd> integrals:    389.786 (MW) /   3118.288 (MB)
	Size of irrep 1 of <ab|cd> integrals:    307.441 (MW) /   2459.529 (MB)
	Size of irrep 2 of <ab|cd> integrals:    346.928 (MW) /   2775.423 (MB)
	Size of irrep 3 of <ab|cd> integrals:    346.928 (MW) /   2775.423 (MB)
	Total:                                  1391.083 (MW) /  11128.664 (MB)

	Size of irrep 0 of <ia|bc> integrals:     37.887 (MW) /    303.095 (MB)
	Size of irrep 1 of <ia|bc> integrals:     26.231 (MW) /    209.847 (MB)
	Size of irrep 2 of <ia|bc> integrals:     31.757 (MW) /    254.059 (MB)
	Size of irrep 3 of <ia|bc> integrals:     31.757 (MW) /    254.059 (MB)
	Total:                                   127.632 (MW) /   1021.059 (MB)

	Size of irrep 0 of tijab amplitudes:       3.889 (MW) /     31.115 (MB)
	Size of irrep 1 of tijab amplitudes:       2.034 (MW) /     16.272 (MB)
	Size of irrep 2 of tijab amplitudes:       2.906 (MW) /     23.245 (MB)
	Size of irrep 3 of tijab amplitudes:       2.906 (MW) /     23.245 (MB)
	Total:                                    11.735 (MW) /     93.877 (MB)

	Nuclear Rep. energy          =    269.07140126534466
	SCF energy                   =   -687.20755073494661
	One-electron energy          =  -1494.40049954535925
	Two-electron energy          =    538.12154754507060
	Reference energy             =   -687.20755073494399

*** tstop() called on na11 at Wed Jun  4 15:08:09 2025
Module time:
	user time   =   17453.93 seconds =     290.90 minutes
	system time =     104.56 seconds =       1.74 minutes
	total time  =        217 seconds =       3.62 minutes
Total time:
	user time   =   19562.12 seconds =     326.04 minutes
	system time =     122.50 seconds =       2.04 minutes
	total time  =        290 seconds =       4.83 minutes
            **************************
            *                        *
            *        CCENERGY        *
            *                        *
            **************************

    Nuclear Rep. energy (wfn)     =  269.071401265344662
    SCF energy          (wfn)     = -687.207550734946608
    Reference energy    (file100) = -687.207550734943993

    Input parameters:
    -----------------
    Wave function   =     CCSD_T
    Reference wfn   =     RHF
    Brueckner       =     No
    Memory (Mbytes) =     600000.0
    Maxiter         =     50
    R_Convergence   =     1.0e-07
    E_Convergence   =     1.0e-06
    Restart         =     Yes
    DIIS            =     Yes
    AO Basis        =     NONE
    ABCD            =     NEW
    Cache Level     =     2
    Cache Type      =     LOW
    Print Level     =     1
    Num. of threads =     120
    # Amps to Print =     10
    Print MP2 Amps? =     No
    Analyze T2 Amps =     No
    Print Pair Ener =     No
    Local CC        =     No
    SCS-MP2         =     False
    SCSN-MP2        =     False
    SCS-CCSD        =     False

MP2 correlation energy -1.5117840368050184
                Solving CC Amplitude Equations
                ------------------------------
  Iter             Energy              RMS        T1Diag      D1Diag    New D1Diag    D2Diag
  ----     ---------------------    ---------   ----------  ----------  ----------   --------
     0        -1.511784036805018    0.000e+00    0.000000    0.000000    0.000000    0.113169
     1        -1.480291536834035    7.434e-02    0.008302    0.024923    0.024923    0.108315
     2        -1.501722957337170    2.562e-02    0.007716    0.023046    0.023046    0.113557
     3        -1.507208870607402    9.165e-03    0.008956    0.027405    0.027405    0.115883
     4        -1.506381066702208    1.694e-03    0.009130    0.028037    0.028037    0.116232
     5        -1.506326296894254    6.314e-04    0.009195    0.028359    0.028359    0.116284
     6        -1.506355877231863    1.621e-04    0.009212    0.028446    0.028446    0.116287
     7        -1.506349740741391    5.406e-05    0.009214    0.028464    0.028464    0.116275
     8        -1.506347437697781    1.162e-05    0.009215    0.028468    0.028468    0.116273
     9        -1.506347886805175    3.784e-06    0.009215    0.028469    0.028469    0.116273
    10        -1.506347509553092    1.344e-06    0.009215    0.028469    0.028469    0.116273
    11        -1.506347519501804    4.114e-07    0.009215    0.028469    0.028469    0.116273
    12        -1.506347501007470    1.468e-07    0.009215    0.028469    0.028469    0.116273
    13        -1.506347501691599    3.679e-08    0.009215    0.028469    0.028469    0.116273

    Iterations converged.


    Largest TIA Amplitudes:
              7   4         0.0207643739
              8   2         0.0158045766
             16 140         0.0158045766
             22 207         0.0158045766
             10   1        -0.0137286563
             17 139        -0.0137286563
             23 206        -0.0137286563
              9   5         0.0132529791
             11  93         0.0132529791
             10   2        -0.0119119412

    Largest TIjAb Amplitudes:
      7   7   4   4        -0.0140538419
      8   8   4   4        -0.0105655314
     16  16   4   4        -0.0105655314
     22  22   4   4        -0.0105655314
     10  10   4   4        -0.0085984850
     17  17   4   4        -0.0085984850
     23  23   4   4        -0.0085984850
     16  16 140 140        -0.0080589427
     22  22 207 207        -0.0080589427
     12  12  93  93        -0.0078328094

    SCF energy       (wfn)                    = -687.207550734946608
    Reference energy (file100)                = -687.207550734943993

    Opposite-spin MP2 correlation energy      =   -1.128325516808486
    Same-spin MP2 correlation energy          =   -0.383458519996533
    Singles MP2 correlation energy            =   -0.000000000000000
    MP2 correlation energy                    =   -1.511784036805018
      * MP2 total energy                      = -688.719334771749004

    Opposite-spin CCSD correlation energy     =   -1.157573051434367
    Same-spin CCSD correlation energy         =   -0.348774450257233
    Singles CCSD correlation energy           =    0.000000000000000
    CCSD correlation energy                   =   -1.506347501691599
      * CCSD total energy                     = -688.713898236635600

            **************************
            *                        *
            *        CCTRIPLES       *
            *                        *
            **************************


    Wave function   =    CCSD_T
    Reference wfn   =      RHF

    Nuclear Rep. energy (wfn)                =  269.071401265344662
    SCF energy          (wfn)                = -687.207550734946608
    Reference energy    (file100)            = -687.207550734943993
    CCSD energy         (file100)            =   -1.506347501691599
    Total CCSD energy   (file100)            = -688.713898236635600

    Number of ijk index combinations:             2925
    Memory available in words               :     75000000000
    Approx. words needed per explicit thread:         3217428
    Number of threads for explicit ijk threading:  120

    (T) energy                                =   -0.040320057000728
      * CCSD(T) total energy                  = -688.754218293636313


    Psi4 stopped on: Wednesday, 04 June 2025 03:13PM
    Psi4 wall time for execution: 0:10:32.18

*** Psi4 exiting successfully. Buy a developer a beer!
