
    -----------------------------------------------------------------------
          Psi4: An Open-Source Ab Initio Electronic Structure Package
                               Psi4 1.9.1 release

                         Git: Rev {} zzzzzzz 


    D. G. A. Smith, L. A. Burns, A. C. Simmonett, R. M. Parrish,
    M. C. Schieber, R. Galvelis, P. Kraus, H. Kruse, R. Di Remigio,
    A. Alenaizan, A. M. James, S. Lehtola, J. P. Misiewicz, M. Scheurer,
    R. A. Shaw, J. B. Schriber, Y. Xie, Z. L. Glick, D. A. Sirianni,
    J. S. O'Brien, J. M. Waldrop, A. Kumar, E. G. Hohenstein,
    B. P. Pritchard, B. R. Brooks, H. F. Schaefer III, A. Yu. Sokolov,
    K. Patkowski, A. E. DePrince III, U. Bozkaya, R. A. King,
    F. A. Evangelista, J. M. Turney, T. D. Crawford, C. D. Sherrill,
    J. Chem. Phys. 152(18) 184108 (2020). https://doi.org/10.1063/5.0006002

                            Additional Code Authors
    E. T. Seidl, C. L. Janssen, E. F. Valeev, M. L. Leininger,
    J. F. Gonthier, R. M. Richard, H. R. McAlexander, M. Saitow, X. Wang,
    P. Verma, M. H. Lechner, A. Jiang, S. Behnle, A. G. Heide,
    M. F. Herbst, and D. L. Poole

             Previous Authors, Complete List of Code Contributors,
                       and Citations for Specific Modules
    https://github.com/psi4/psi4/blob/master/codemeta.json
    https://github.com/psi4/psi4/graphs/contributors
    http://psicode.org/psi4manual/master/introduction.html#citing-psifour

    -----------------------------------------------------------------------


    Psi4 started on: Wednesday, 04 June 2025 11:30AM

    Process ID: 2766814
    Host:       OptiPlex-Tower-Plus-7020
    PSIDATADIR: /home/jfhlewyee/anaconda3/envs/psi4/share/psi4
    Memory:     500.0 MiB
    Threads:    20
    
  ==> Input File <==

--------------------------------------------------------------------------
memory 20Gb

molecule{
0 3
Si     0.000000  0.000000  0.000000
}

set reference rohf

energy("CCSD(T)/def2-QZVP")
--------------------------------------------------------------------------

  Memory set to  18.626 GiB by Python driver.

Scratch directory: /tmp/
   => Libint2 <=

    Primary   basis highest AM E, G, H:  6, 6, 3
    Auxiliary basis highest AM E, G, H:  7, 7, 4
    Onebody   basis highest AM E, G, H:  -, -, -
    Solid Harmonics ordering:            Gaussian

*** tstart() called on OptiPlex-Tower-Plus-7020
*** at Wed Jun  4 11:30:46 2025

   => Loading Basis Set <=

    Name: DEF2-QZVP
    Role: ORBITAL
    Keyword: BASIS
    atoms 1 entry SI         line   614 file /home/jfhlewyee/anaconda3/envs/psi4/share/psi4/basis/def2-qzvp.gbs 


         ---------------------------------------------------------
                                   SCF
               by Justin Turney, Rob Parrish, Andy Simmonett
                          and Daniel G. A. Smith
                             ROHF Reference
                       20 Threads,  19073 MiB Core
         ---------------------------------------------------------

  ==> Geometry <==

    Molecular point group: d2h
    Geometry (in Angstrom), charge = 0, multiplicity = 3:

       Center              X                  Y                   Z               Mass       
    ------------   -----------------  -----------------  -----------------  -----------------
         SI           0.000000000000     0.000000000000     0.000000000000    27.976926534650

  Running in d2h symmetry.

  Rotational constants: A = ************  B = ************  C = ************ [cm^-1]
  Rotational constants: A = ************  B = ************  C = ************ [MHz]
  Nuclear repulsion =    0.000000000000000

  Charge       = 0
  Multiplicity = 3
  Electrons    = 14
  Nalpha       = 8
  Nbeta        = 6

  ==> Algorithm <==

  SCF Algorithm Type is PK.
  DIIS enabled.
  MOM disabled.
  Fractional occupation disabled.
  Guess Type is CORE.
  Energy threshold   = 1.00e-08
  Density threshold  = 1.00e-08
  Integral threshold = 1.00e-12

  ==> Primary Basis <==

  Basis Set: DEF2-QZVP
    Blend: DEF2-QZVP
    Number of shells: 22
    Number of basis functions: 70
    Number of Cartesian functions: 86
    Spherical Harmonics?: true
    Max angular momentum: 4

  ==> Integral Setup <==

  Using in-core PK algorithm.
   Calculation information:
      Number of atoms:                   1
      Number of AO shells:              22
      Number of primitives:             41
      Number of atomic orbitals:        86
      Number of basis functions:        70

      Integral cutoff                 1.00e-12
      Number of threads:                20

  Performing in-core PK
  Using 6177710 doubles for integral storage.
  We computed 112160 shell quartets total.
  Whereas there are 32131 unique shell quartets.
   249.07 percent of shell quartets recomputed by reordering.

  ==> DiskJK: Disk-Based J/K Matrices <==

    J tasked:                  Yes
    K tasked:                  Yes
    wK tasked:                  No
    Memory [MiB]:            14305
    Schwarz Cutoff:          1E-12

    OpenMP threads:             20

  Minimum eigenvalue in the overlap matrix is 2.7006735054E-03.
  Reciprocal condition number of the overlap matrix is 6.0704732241E-04.
    Using symmetric orthogonalization.

  ==> Pre-Iterations <==

  SCF Guess: Core (One-Electron) Hamiltonian.

   -------------------------------------------------------
    Irrep   Nso     Nmo     Nalpha   Nbeta   Ndocc  Nsocc
   -------------------------------------------------------
     Ag        20      20       3       3       3       0
     B1g        6       6       0       0       0       0
     B2g        6       6       0       0       0       0
     B3g        6       6       0       0       0       0
     Au         2       2       0       0       0       0
     B1u       10      10       2       1       1       1
     B2u       10      10       2       1       1       1
     B3u       10      10       1       1       1       0
   -------------------------------------------------------
    Total      70      70       8       6       6       2
   -------------------------------------------------------

  ==> Iterations <==

                        Total Energy        Delta E     RMS |[F,P]|

    Occupation by irrep:
             Ag   B1g   B2g   B3g    Au   B1u   B2u   B3u 
    DOCC [     3,    0,    0,    0,    0,    1,    1,    1 ]
    SOCC [     0,    0,    0,    0,    0,    1,    0,    1 ]
    NA   [     3,    0,    0,    0,    0,    2,    1,    2 ]
    NB   [     3,    0,    0,    0,    0,    1,    1,    1 ]

   @ROHF iter   1:  -259.49128375985299   -2.59491e+02   4.79085e-01 DIIS
   @ROHF iter   2:  -278.68100580820573   -1.91897e+01   2.09139e-01 DIIS
   @ROHF iter   3:  -288.36611295255318   -9.68511e+00   4.98149e-02 DIIS
   @ROHF iter   4:  -288.84808708506546   -4.81974e-01   3.19121e-03 DIIS
   @ROHF iter   5:  -288.85423892599533   -6.15184e-03   5.10157e-04 DIIS
   @ROHF iter   6:  -288.85434396516439   -1.05039e-04   6.97579e-05 DIIS
   @ROHF iter   7:  -288.85434958039616   -5.61523e-06   1.49902e-05 DIIS
   @ROHF iter   8:  -288.85434979724209   -2.16846e-07   1.94001e-06 DIIS
   @ROHF iter   9:  -288.85434980537536   -8.13327e-09   2.47704e-07 DIIS
   @ROHF iter  10:  -288.85434980545165   -7.62839e-11   1.31021e-08 DIIS
   @ROHF iter  11:  -288.85434980545182   -1.70530e-13   5.66194e-10 DIIS
  Energy and wave function converged.


  ==> Post-Iterations <==

    Orbital Energies [Eh]
    ---------------------

    Doubly Occupied:                                                      

       1Ag   -68.812342     2Ag    -6.156436     1B2u   -4.256896  
       1B3u   -4.255481     1B1u   -4.255481     3Ag    -0.539806  

    Singly Occupied:                                                      

       2B1u   -0.109090     2B3u   -0.109090  

    Virtual:                                                              

       2B2u    0.002567     4Ag     0.188711     3B3u    0.194603  
       3B1u    0.194603     3B2u    0.204514     5Ag     0.267339  
       1B1g    0.268759     1B3g    0.268759     6Ag     0.274210  
       1B2g    0.274210     7Ag     0.764512     2B1g    0.768725  
       2B3g    0.768725     8Ag     0.781870     2B2g    0.781870  
       4B2u    0.783172     4B3u    0.786013     4B1u    0.786013  
       1Au     0.794814     5B2u    0.794814     5B3u    0.808561  
       5B1u    0.808561     6B2u    0.855704     6B3u    0.868081  
       6B1u    0.868081     9Ag     1.041399    10Ag     1.883068  
       3B1g    1.889517     3B3g    1.889517     3B2g    1.910146  
      11Ag     1.910146    12Ag     2.210032     4B1g    2.212436  
       4B3g    2.212436     4B2g    2.219677    13Ag     2.219677  
       5B1g    2.231838     5B3g    2.231838    14Ag     2.249070  
       5B2g    2.249070     7B2u    2.255508     7B3u    2.259165  
       7B1u    2.259165     2Au     2.270292     8B2u    2.270292  
       8B3u    2.289017     8B1u    2.289017     9B2u    3.018800  
       9B3u    3.040794     9B1u    3.040794    15Ag     4.460887  
      16Ag     6.033412     6B1g    6.038099     6B3g    6.038099  
       6B2g    6.052462    17Ag     6.052462    10B2u   11.782325  
      10B3u   11.795630    10B1u   11.795630    18Ag    16.435115  
      19Ag    58.616629    20Ag   318.514681  

    Final Occupation by Irrep:
             Ag   B1g   B2g   B3g    Au   B1u   B2u   B3u 
    DOCC [     3,    0,    0,    0,    0,    1,    1,    1 ]
    SOCC [     0,    0,    0,    0,    0,    1,    0,    1 ]
    NA   [     3,    0,    0,    0,    0,    2,    1,    2 ]
    NB   [     3,    0,    0,    0,    0,    1,    1,    1 ]

  @ROHF Final Energy:  -288.85434980545182

   => Energetics <=

    Nuclear Repulsion Energy =              0.0000000000000000
    One-Electron Energy =                -400.5613859658038223
    Two-Electron Energy =                 111.7070361603520041
    Total Energy =                       -288.8543498054518182

Computation Completed


Properties will be evaluated at   0.000000,   0.000000,   0.000000 [a0]

Properties computed using the SCF density matrix


 Multipole Moments:

 ------------------------------------------------------------------------------------
     Multipole            Electronic (a.u.)      Nuclear  (a.u.)        Total (a.u.)
 ------------------------------------------------------------------------------------

 L = 1.  Multiply by 2.5417464519 to convert [e a0] to [Debye]
 Dipole X            :          0.0000000            0.0000000            0.0000000
 Dipole Y            :          0.0000000            0.0000000            0.0000000
 Dipole Z            :          0.0000000            0.0000000            0.0000000
 Magnitude           :                                                    0.0000000

 ------------------------------------------------------------------------------------

*** tstop() called on OptiPlex-Tower-Plus-7020 at Wed Jun  4 11:30:47 2025
Module time:
	user time   =       1.28 seconds =       0.02 minutes
	system time =       0.26 seconds =       0.00 minutes
	total time  =          1 seconds =       0.02 minutes
Total time:
	user time   =       1.28 seconds =       0.02 minutes
	system time =       0.26 seconds =       0.00 minutes
	total time  =          1 seconds =       0.02 minutes
 MINTS: Wrapper to libmints.
   by Justin Turney

   Calculation information:
      Number of threads:                20
      Number of atoms:                   1
      Number of AO shells:              22
      Number of SO shells:              22
      Number of primitives:             41
      Number of atomic orbitals:        86
      Number of basis functions:        70

      Number of irreps:                  8
      Integral cutoff                 1.00e-12
      Number of functions per irrep: [  20    6    6    6    2   10   10   10 ]

 OEINTS: Overlap, kinetic, potential, dipole, and quadrupole integrals
         stored in file 35.

      Computing two-electron integrals...done
      Computed 295747 non-zero two-electron integrals.
        Stored in file 33.


*** tstart() called on OptiPlex-Tower-Plus-7020
*** at Wed Jun  4 11:30:47 2025


	Wfn Parameters:
	--------------------
	Wavefunction         = CCSD_T
	Number of irreps     = 8
	Number of MOs        = 70
	Number of active MOs = 70
	AO-Basis             = NONE
	Semicanonical        = true
	Reference            = ROHF changed to UHF for semicanonical orbitals
	Print Level          = 1

	IRREP	# MOs	# FZDC	# DOCC	# SOCC	# VIRT	# FZVR
	-----	-----	------	------	------	------	------
	 Ag	   20	    0	    3	    0	    17	    0
	 B1g	   6	    0	    0	    0	    6	    0
	 B2g	   6	    0	    0	    0	    6	    0
	 B3g	   6	    0	    0	    0	    6	    0
	 Au	   2	    0	    0	    0	    2	    0
	 B1u	   10	    0	    1	    1	    8	    0
	 B2u	   10	    0	    1	    0	    9	    0
	 B3u	   10	    0	    1	    1	    8	    0
	Transforming integrals...
	IWL integrals will be deleted.
	(OO|OO)...
	Presorting SO-basis two-electron integrals.
	Sorting File: SO Ints (nn|nn) nbuckets = 1
	Constructing frozen core operators
	Starting AA/AB first half-transformation.
	Sorting AA/AB half-transformed integrals.
	Starting BB first half-transformation.
	Sorting BB half-transformed integrals.
	First half integral transformation complete.
	Starting AA second half-transformation.
	Starting AB second half-transformation.
	Starting BB second half-transformation.
	Two-electron integral transformation complete.
	(OO|OV)...
	Starting AA second half-transformation.
	Starting AB second half-transformation.
	Starting BB second half-transformation.
	Two-electron integral transformation complete.
	(OO|VV)...
	Starting AA second half-transformation.
	Starting AB second half-transformation.
	Starting BB second half-transformation.
	Two-electron integral transformation complete.
	(OV|OO)...
	Starting AA/AB first half-transformation.
	Sorting AA/AB half-transformed integrals.
	Starting BB first half-transformation.
	Sorting BB half-transformed integrals.
	First half integral transformation complete.
	Starting AA second half-transformation.
	Starting AB second half-transformation.
	Starting BB second half-transformation.
	Two-electron integral transformation complete.
	(OV|OV)...
	Starting AA second half-transformation.
	Starting AB second half-transformation.
	Starting BB second half-transformation.
	Two-electron integral transformation complete.
	(OV|VV)...
	Starting AA second half-transformation.
	Starting AB second half-transformation.
	Starting BB second half-transformation.
	Two-electron integral transformation complete.
	(VV|OO)...
	Starting AA/AB first half-transformation.
	Sorting AA/AB half-transformed integrals.
	Starting BB first half-transformation.
	Sorting BB half-transformed integrals.
	First half integral transformation complete.
	Starting AA second half-transformation.
	Starting AB second half-transformation.
	Starting BB second half-transformation.
	Two-electron integral transformation complete.
	(VV|OV)...
	Starting AA second half-transformation.
	Starting AB second half-transformation.
	Starting BB second half-transformation.
	Two-electron integral transformation complete.
	(VV|VV)...
	Starting AA second half-transformation.
	Starting AB second half-transformation.
	Starting BB second half-transformation.
	Two-electron integral transformation complete.
	Frozen core energy     =      0.00000000000000

	Size of irrep 0 of <AB|CD> integrals:      0.075 (MW) /      0.601 (MB)
	Size of irrep 1 of <AB|CD> integrals:      0.051 (MW) /      0.409 (MB)
	Size of irrep 2 of <AB|CD> integrals:      0.048 (MW) /      0.387 (MB)
	Size of irrep 3 of <AB|CD> integrals:      0.051 (MW) /      0.409 (MB)
	Size of irrep 4 of <AB|CD> integrals:      0.034 (MW) /      0.271 (MB)
	Size of irrep 5 of <AB|CD> integrals:      0.062 (MW) /      0.500 (MB)
	Size of irrep 6 of <AB|CD> integrals:      0.068 (MW) /      0.545 (MB)
	Size of irrep 7 of <AB|CD> integrals:      0.062 (MW) /      0.500 (MB)
	Total:                                     0.453 (MW) /      3.621 (MB)

	Size of irrep 0 of <ab|cd> integrals:      0.084 (MW) /      0.673 (MB)
	Size of irrep 1 of <ab|cd> integrals:      0.056 (MW) /      0.449 (MB)
	Size of irrep 2 of <ab|cd> integrals:      0.056 (MW) /      0.449 (MB)
	Size of irrep 3 of <ab|cd> integrals:      0.056 (MW) /      0.449 (MB)
	Size of irrep 4 of <ab|cd> integrals:      0.038 (MW) /      0.307 (MB)
	Size of irrep 5 of <ab|cd> integrals:      0.075 (MW) /      0.596 (MB)
	Size of irrep 6 of <ab|cd> integrals:      0.075 (MW) /      0.596 (MB)
	Size of irrep 7 of <ab|cd> integrals:      0.075 (MW) /      0.596 (MB)
	Total:                                     0.515 (MW) /      4.117 (MB)

	Size of irrep 0 of <Ab|Cd> integrals:      0.392 (MW) /      3.135 (MB)
	Size of irrep 1 of <Ab|Cd> integrals:      0.214 (MW) /      1.715 (MB)
	Size of irrep 2 of <Ab|Cd> integrals:      0.208 (MW) /      1.663 (MB)
	Size of irrep 3 of <Ab|Cd> integrals:      0.214 (MW) /      1.715 (MB)
	Size of irrep 4 of <Ab|Cd> integrals:      0.144 (MW) /      1.155 (MB)
	Size of irrep 5 of <Ab|Cd> integrals:      0.274 (MW) /      2.188 (MB)
	Size of irrep 6 of <Ab|Cd> integrals:      0.285 (MW) /      2.281 (MB)
	Size of irrep 7 of <Ab|Cd> integrals:      0.274 (MW) /      2.188 (MB)
	Total:                                     2.005 (MW) /     16.041 (MB)

	Size of irrep 0 of <IA|BC> integrals:      0.056 (MW) /      0.449 (MB)
	Size of irrep 1 of <IA|BC> integrals:      0.022 (MW) /      0.174 (MB)
	Size of irrep 2 of <IA|BC> integrals:      0.023 (MW) /      0.183 (MB)
	Size of irrep 3 of <IA|BC> integrals:      0.022 (MW) /      0.174 (MB)
	Size of irrep 4 of <IA|BC> integrals:      0.013 (MW) /      0.106 (MB)
	Size of irrep 5 of <IA|BC> integrals:      0.038 (MW) /      0.304 (MB)
	Size of irrep 6 of <IA|BC> integrals:      0.035 (MW) /      0.284 (MB)
	Size of irrep 7 of <IA|BC> integrals:      0.038 (MW) /      0.304 (MB)
	Total:                                     0.247 (MW) /      1.977 (MB)

	Size of irrep 0 of <ia|bc> integrals:      0.050 (MW) /      0.402 (MB)
	Size of irrep 1 of <ia|bc> integrals:      0.018 (MW) /      0.144 (MB)
	Size of irrep 2 of <ia|bc> integrals:      0.018 (MW) /      0.144 (MB)
	Size of irrep 3 of <ia|bc> integrals:      0.018 (MW) /      0.144 (MB)
	Size of irrep 4 of <ia|bc> integrals:      0.009 (MW) /      0.075 (MB)
	Size of irrep 5 of <ia|bc> integrals:      0.031 (MW) /      0.245 (MB)
	Size of irrep 6 of <ia|bc> integrals:      0.031 (MW) /      0.245 (MB)
	Size of irrep 7 of <ia|bc> integrals:      0.031 (MW) /      0.245 (MB)
	Total:                                     0.205 (MW) /      1.643 (MB)

	Size of irrep 0 of <Ia|Bc> integrals:      0.060 (MW) /      0.481 (MB)
	Size of irrep 1 of <Ia|Bc> integrals:      0.023 (MW) /      0.181 (MB)
	Size of irrep 2 of <Ia|Bc> integrals:      0.026 (MW) /      0.204 (MB)
	Size of irrep 3 of <Ia|Bc> integrals:      0.023 (MW) /      0.181 (MB)
	Size of irrep 4 of <Ia|Bc> integrals:      0.014 (MW) /      0.109 (MB)
	Size of irrep 5 of <Ia|Bc> integrals:      0.041 (MW) /      0.331 (MB)
	Size of irrep 6 of <Ia|Bc> integrals:      0.036 (MW) /      0.290 (MB)
	Size of irrep 7 of <Ia|Bc> integrals:      0.041 (MW) /      0.331 (MB)
	Total:                                     0.264 (MW) /      2.109 (MB)

	Size of irrep 0 of <iA|bC> integrals:      0.048 (MW) /      0.381 (MB)
	Size of irrep 1 of <iA|bC> integrals:      0.017 (MW) /      0.137 (MB)
	Size of irrep 2 of <iA|bC> integrals:      0.016 (MW) /      0.131 (MB)
	Size of irrep 3 of <iA|bC> integrals:      0.017 (MW) /      0.137 (MB)
	Size of irrep 4 of <iA|bC> integrals:      0.009 (MW) /      0.073 (MB)
	Size of irrep 5 of <iA|bC> integrals:      0.028 (MW) /      0.222 (MB)
	Size of irrep 6 of <iA|bC> integrals:      0.030 (MW) /      0.239 (MB)
	Size of irrep 7 of <iA|bC> integrals:      0.028 (MW) /      0.222 (MB)
	Total:                                     0.193 (MW) /      1.542 (MB)

	Size of irrep 0 of tIjAb amplitudes:       0.009 (MW) /      0.070 (MB)
	Size of irrep 1 of tIjAb amplitudes:       0.001 (MW) /      0.011 (MB)
	Size of irrep 2 of tIjAb amplitudes:       0.002 (MW) /      0.015 (MB)
	Size of irrep 3 of tIjAb amplitudes:       0.001 (MW) /      0.011 (MB)
	Size of irrep 4 of tIjAb amplitudes:       0.000 (MW) /      0.000 (MB)
	Size of irrep 5 of tIjAb amplitudes:       0.005 (MW) /      0.038 (MB)
	Size of irrep 6 of tIjAb amplitudes:       0.003 (MW) /      0.026 (MB)
	Size of irrep 7 of tIjAb amplitudes:       0.005 (MW) /      0.038 (MB)
	Total:                                     0.026 (MW) /      0.208 (MB)

	Nuclear Rep. energy          =      0.00000000000000
	SCF energy                   =   -288.85434980545182
	One-electron energy          =   -400.56138599216922
	Two-electron (AA) energy     =     25.68930528850673
	Two-electron (BB) energy     =     20.35347761243182
	Two-electron (AB) energy     =     65.66425328577877
	Two-electron energy          =    111.70703618671732
	Reference energy             =   -288.85434980545193

*** tstop() called on OptiPlex-Tower-Plus-7020 at Wed Jun  4 11:30:47 2025
Module time:
	user time   =       0.12 seconds =       0.00 minutes
	system time =       0.07 seconds =       0.00 minutes
	total time  =          0 seconds =       0.00 minutes
Total time:
	user time   =       1.49 seconds =       0.02 minutes
	system time =       0.50 seconds =       0.01 minutes
	total time  =          1 seconds =       0.02 minutes
            **************************
            *                        *
            *        CCENERGY        *
            *                        *
            **************************

    Nuclear Rep. energy (wfn)     =    0.000000000000000
    SCF energy          (wfn)     = -288.854349805451818
    Reference energy    (file100) = -288.854349805451932

    Input parameters:
    -----------------
    Wave function   =     CCSD_T
    Reference wfn   =     ROHF changed to UHF for Semicanonical Orbitals
    Brueckner       =     No
    Memory (Mbytes) =     20000.0
    Maxiter         =     50
    R_Convergence   =     1.0e-07
    E_Convergence   =     1.0e-06
    Restart         =     Yes
    DIIS            =     Yes
    AO Basis        =     NONE
    ABCD            =     NEW
    Cache Level     =     2
    Cache Type      =     LRU
    Print Level     =     1
    Num. of threads =     20
    # Amps to Print =     10
    Print MP2 Amps? =     No
    Analyze T2 Amps =     No
    Print Pair Ener =     No
    Local CC        =     No
    SCS-MP2         =     False
    SCSN-MP2        =     False
    SCS-CCSD        =     False

MP2 correlation energy -0.2641989670950666
                Solving CC Amplitude Equations
                ------------------------------
  Iter             Energy              RMS        T1Diag      D1Diag    New D1Diag    D2Diag
  ----     ---------------------    ---------   ----------  ----------  ----------   --------
     0        -0.264244959999432    0.000e+00    0.013551    0.000000    0.000000    0.000000
     1        -0.273862054072431    5.050e-02    0.016857    0.000000    0.000000    0.000000
     2        -0.279160716412372    1.865e-02    0.018786    0.000000    0.000000    0.000000
     3        -0.279215083722877    5.005e-03    0.019162    0.000000    0.000000    0.000000
     4        -0.279288657294631    1.568e-03    0.019164    0.000000    0.000000    0.000000
     5        -0.279287902857869    3.043e-04    0.019140    0.000000    0.000000    0.000000
     6        -0.279290261883269    7.219e-05    0.019136    0.000000    0.000000    0.000000
     7        -0.279290142475256    1.976e-05    0.019135    0.000000    0.000000    0.000000
     8        -0.279290055385592    4.445e-06    0.019135    0.000000    0.000000    0.000000
     9        -0.279290039583048    1.090e-06    0.019135    0.000000    0.000000    0.000000
    10        -0.279290047450053    2.954e-07    0.019135    0.000000    0.000000    0.000000
    11        -0.279290043277825    8.027e-08    0.019135    0.000000    0.000000    0.000000

    Iterations converged.


    Largest TIA Amplitudes:
              2   2        -0.0206034313
              2   0         0.0172062086
              2   4         0.0154498549
              7  54        -0.0124586890
              4  37        -0.0124586873
              7  57         0.0065003211
              4  40         0.0065003206
              5  49        -0.0027032326
              5  45        -0.0022549159
              3  40        -0.0021512426

    Largest Tia Amplitudes:
              2   1         0.0498928597
              2   3        -0.0309826215
              2   5        -0.0110666259
              2   0        -0.0073760900
              3  41        -0.0033589815
              5  59        -0.0033589815
              5  62         0.0033506674
              3  44         0.0033506674
              4  50         0.0024860805
              2  11        -0.0024162142

    Largest TIJAB Amplitudes:
      7   4  23   1        -0.0467454734
      7   4  54  37        -0.0230193018
      7   4  29  17         0.0228061246
      7   2  45  17         0.0207273122
      4   2  45  29         0.0207273122
      7   4  23   3        -0.0207189671
      7   4  24   1         0.0207189671
      7   4  24   3         0.0157437800
      4   2  37   0         0.0150876485
      7   2  54   0         0.0150876485

    Largest Tijab Amplitudes:
      5   3  28  13        -0.0073277269
      5   4  22  12         0.0063637511
      4   3  34  12        -0.0063637510
      5   4  62  53         0.0050441883
      4   3  53  44         0.0050441883
      5   3  62  44        -0.0050343459
      5   3  63  45        -0.0045478502
      5   4  63  54        -0.0045476178
      4   3  54  45        -0.0045476178
      5   3  25  13         0.0041868263

    Largest TIjAb Amplitudes:
      2   2  45  46        -0.0833258630
      2   2  45  47         0.0515250953
      4   2  29  46        -0.0482607143
      7   2  17  46        -0.0482607142
      7   2   1  55         0.0450215173
      7   2  23  37         0.0450215169
      4   2  23  55        -0.0450215167
      4   2   1  37         0.0450215164
      2   2  46  46         0.0424146740
      4   2  45  29         0.0313799634

    SCF energy       (wfn)                    = -288.854349805451818
    Reference energy (file100)                = -288.854349805451932

    Opposite-spin MP2 correlation energy      =   -0.193823469988814
    Same-spin MP2 correlation energy          =   -0.067838100642963
    Singles MP2 correlation energy            =   -0.002537396463290
    MP2 correlation energy                    =   -0.264198967095067
      * MP2 total energy                      = -289.118548772547001

    Opposite-spin CCSD correlation energy     =   -0.209056645965243
    Same-spin CCSD correlation energy         =   -0.067242207038004
    Singles CCSD correlation energy           =   -0.002991190274578
    CCSD correlation energy                   =   -0.279290043277825
      * CCSD total energy                     = -289.133639848729729

            **************************
            *                        *
            *        CCTRIPLES       *
            *                        *
            **************************


    Wave function   =    CCSD_T
    Reference wfn   =    ROHF changed to UHF for Semicanonical Orbitals

    Nuclear Rep. energy (wfn)                =    0.000000000000000
    SCF energy          (wfn)                = -288.854349805451818
    Reference energy    (file100)            = -288.854349805451932
    CCSD energy         (file100)            =   -0.279290043277825
    Total CCSD energy   (file100)            = -289.133639848729729

    Number of ijk index combinations:
    Spin Case AAA:                                  56
    Spin Case BBB:                                  20
    Spin Case AAB:                                 168
    Spin Case ABB:                                 120
    AAA (T) energy                             =   -0.000173330381717
    BBB (T) energy                             =   -0.000038139935118
    AAB (T) energy                             =   -0.003930404598040
    ABB (T) energy                             =   -0.001020733236909
    (T) energy                                   =   -0.005162608151785
      * CCSD(T) total energy                     = -289.138802456881535


    Psi4 stopped on: Wednesday, 04 June 2025 11:30AM
    Psi4 wall time for execution: 0:00:02.30

*** Psi4 exiting successfully. Buy a developer a beer!
