
    -----------------------------------------------------------------------
          Psi4: An Open-Source Ab Initio Electronic Structure Package
                               Psi4 1.9.1 release

                         Git: Rev {} zzzzzzz 


    D. G. A. Smith, L. A. Burns, A. C. Simmonett, R. M. Parrish,
    M. C. Schieber, R. Galvelis, P. Kraus, H. Kruse, R. Di Remigio,
    A. Alenaizan, A. M. James, S. Lehtola, J. P. Misiewicz, M. Scheurer,
    R. A. Shaw, J. B. Schriber, Y. Xie, Z. L. Glick, D. A. Sirianni,
    J. S. O'Brien, J. M. Waldrop, A. Kumar, E. G. Hohenstein,
    B. P. Pritchard, B. R. Brooks, H. F. Schaefer III, A. Yu. Sokolov,
    K. Patkowski, A. E. DePrince III, U. Bozkaya, R. A. King,
    F. A. Evangelista, J. M. Turney, T. D. Crawford, C. D. Sherrill,
    J. Chem. Phys. 152(18) 184108 (2020). https://doi.org/10.1063/5.0006002

                            Additional Code Authors
    E. T. Seidl, C. L. Janssen, E. F. Valeev, M. L. Leininger,
    J. F. Gonthier, R. M. Richard, H. R. McAlexander, M. Saitow, X. Wang,
    P. Verma, M. H. Lechner, A. Jiang, S. Behnle, A. G. Heide,
    M. F. Herbst, and D. L. Poole

             Previous Authors, Complete List of Code Contributors,
                       and Citations for Specific Modules
    https://github.com/psi4/psi4/blob/master/codemeta.json
    https://github.com/psi4/psi4/graphs/contributors
    http://psicode.org/psi4manual/master/introduction.html#citing-psifour

    -----------------------------------------------------------------------


    Psi4 started on: Friday, 06 June 2025 03:49PM

    Process ID: 2268695
    Host:       na21
    PSIDATADIR: /software-nas/eb2024/easybuild/software/rocky/8.9/amd/zen4/software/PSI4/1.9.1-foss-2023b/share/psi4
    Memory:     500.0 MiB
    Threads:    40
    
  ==> Input File <==

--------------------------------------------------------------------------
memory 100Gb

molecule{
0 2
O     1.174393  0.194313  0.000000
O     0.000000  0.553180  0.000000
O     -0.950471  -0.717715  0.000000
H     -1.791374  -0.238229  0.000000
}

set reference rohf

energy("CCSD(T)/cc-pVTZ")
--------------------------------------------------------------------------

  Memory set to  93.132 GiB by Python driver.

Scratch directory: /scratch/pobleyef/204022/
   => Libint2 <=

    Primary   basis highest AM E, G, H:  5, 4, 3
    Auxiliary basis highest AM E, G, H:  6, 5, 4
    Onebody   basis highest AM E, G, H:  6, 5, 4
    Solid Harmonics ordering:            Gaussian

*** tstart() called on na21
*** at Fri Jun  6 15:49:03 2025

   => Loading Basis Set <=

    Name: CC-PVTZ
    Role: ORBITAL
    Keyword: BASIS
    atoms 1-3 entry O          line   262 file /software-nas/eb2024/easybuild/software/rocky/8.9/amd/zen4/software/PSI4/1.9.1-foss-2023b/share/psi4/basis/cc-pvtz.gbs 
    atoms 4   entry H          line    23 file /software-nas/eb2024/easybuild/software/rocky/8.9/amd/zen4/software/PSI4/1.9.1-foss-2023b/share/psi4/basis/cc-pvtz.gbs 


         ---------------------------------------------------------
                                   SCF
               by Justin Turney, Rob Parrish, Andy Simmonett
                          and Daniel G. A. Smith
                             ROHF Reference
                       40 Threads,  95367 MiB Core
         ---------------------------------------------------------

  ==> Geometry <==

    Molecular point group: cs
    Full point group: Cs

    Geometry (in Angstrom), charge = 0, multiplicity = 2:

       Center              X                  Y                   Z               Mass       
    ------------   -----------------  -----------------  -----------------  -----------------
         O            1.138138079052     0.189491790921     0.000000000000    15.994914619570
         O           -0.036254920948     0.548358790921     0.000000000000    15.994914619570
         O           -0.986725920948    -0.722536209079     0.000000000000    15.994914619570
         H           -1.827628920948    -0.243050209079     0.000000000000     1.007825032230

  Running in cs symmetry.

  Rotational constants: A =      2.42988  B =      0.36225  C =      0.31525 [cm^-1]
  Rotational constants: A =  72845.95474  B =  10860.01180  C =   9451.03391 [MHz]
  Nuclear repulsion =   71.513709540486090

  Charge       = 0
  Multiplicity = 2
  Electrons    = 25
  Nalpha       = 13
  Nbeta        = 12

  ==> Algorithm <==

  SCF Algorithm Type is PK.
  DIIS enabled.
  MOM disabled.
  Fractional occupation disabled.
  Guess Type is SAD.
  Energy threshold   = 1.00e-08
  Density threshold  = 1.00e-08
  Integral threshold = 1.00e-12

  ==> Primary Basis <==

  Basis Set: CC-PVTZ
    Blend: CC-PVTZ
    Number of shells: 36
    Number of basis functions: 104
    Number of Cartesian functions: 120
    Spherical Harmonics?: true
    Max angular momentum: 3

  ==> Integral Setup <==

  Using in-core PK algorithm.
   Calculation information:
      Number of atoms:                   4
      Number of AO shells:              36
      Number of primitives:             86
      Number of atomic orbitals:       120
      Number of basis functions:       104

      Integral cutoff                 1.00e-12
      Number of threads:                40

  Performing in-core PK
  Using 29817060 doubles for integral storage.
  We computed 712173 shell quartets total.
  Whereas there are 222111 unique shell quartets.
   220.64 percent of shell quartets recomputed by reordering.

  ==> DiskJK: Disk-Based J/K Matrices <==

    J tasked:                  Yes
    K tasked:                  Yes
    wK tasked:                  No
    Memory [MiB]:            71525
    Schwarz Cutoff:          1E-12

    OpenMP threads:             40

  Minimum eigenvalue in the overlap matrix is 2.6980287127E-03.
  Reciprocal condition number of the overlap matrix is 5.9801300025E-04.
    Using symmetric orthogonalization.

  ==> Pre-Iterations <==

  SCF Guess: Superposition of Atomic Densities via on-the-fly atomic UHF (no occupation information).

   -------------------------
    Irrep   Nso     Nmo    
   -------------------------
     A'        70      70 
     A"        34      34 
   -------------------------
    Total     104     104
   -------------------------

  ==> Iterations <==

                        Total Energy        Delta E     RMS |[F,P]|

   @ROHF iter SAD:  -223.92211711887791   -2.23922e+02   0.00000e+00 
   @ROHF iter   1:  -224.85354329156888   -9.31426e-01   5.43034e-03 DIIS
   @ROHF iter   2:  -224.88209440730418   -2.85511e-02   5.75204e-03 DIIS
   @ROHF iter   3:  -224.99422205676126   -1.12128e-01   6.33463e-04 DIIS
   @ROHF iter   4:  -225.00051793196548   -6.29588e-03   5.26071e-04 DIIS
   @ROHF iter   5:  -225.00403571158068   -3.51778e-03   3.48090e-04 DIIS
   @ROHF iter   6:  -225.00666722896204   -2.63152e-03   2.22070e-04 DIIS
   @ROHF iter   7:  -225.00743047833333   -7.63249e-04   5.37812e-05 DIIS
   @ROHF iter   8:  -225.00746615575974   -3.56774e-05   2.26334e-05 DIIS
   @ROHF iter   9:  -225.00747823649129   -1.20807e-05   6.84265e-06 DIIS
   @ROHF iter  10:  -225.00747917486132   -9.38370e-07   2.31329e-06 DIIS
   @ROHF iter  11:  -225.00747923518787   -6.03266e-08   7.48260e-07 DIIS
   @ROHF iter  12:  -225.00747924708605   -1.18982e-08   1.91792e-07 DIIS
   @ROHF iter  13:  -225.00747924778926   -7.03210e-10   8.22795e-08 DIIS
   @ROHF iter  14:  -225.00747924786947   -8.02061e-11   2.51622e-08 DIIS
   @ROHF iter  15:  -225.00747924788169   -1.22213e-11   8.58654e-09 DIIS
  Energy and wave function converged.


  ==> Post-Iterations <==

    Orbital Energies [Eh]
    ---------------------

    Doubly Occupied:                                                      

       1Ap   -20.754745     2Ap   -20.692964     3Ap   -20.649901  
       4Ap    -1.644172     5Ap    -1.363995     6Ap    -1.093815  
       7Ap    -0.759429     8Ap    -0.732989     1App   -0.714496  
       9Ap    -0.644670     2App   -0.543783    10Ap    -0.477092  

    Singly Occupied:                                                      

       3App   -0.210293  

    Virtual:                                                              

      11Ap     0.119418    12Ap     0.160645    13Ap     0.406963  
      14Ap     0.555404    15Ap     0.662868    16Ap     0.688698  
       4App    0.705363    17Ap     0.725136    18Ap     0.763471  
       5App    0.787348    19Ap     0.808357     6App    0.840950  
      20Ap     0.893546     7App    0.901353    21Ap     1.043577  
      22Ap     1.107820    23Ap     1.315321     8App    1.402409  
      24Ap     1.484235    25Ap     1.519270     9App    1.548449  
      26Ap     1.598518    27Ap     1.711844    10App    1.748047  
      28Ap     1.977172    11App    2.027259    29Ap     2.061813  
      30Ap     2.184777    12App    2.224347    31Ap     2.380864  
      32Ap     2.412394    13App    2.472032    33Ap     2.573446  
      34Ap     2.720898    35Ap     2.849085    14App    3.469844  
      36Ap     3.504601    15App    3.734853    37Ap     3.806985  
      16App    3.890658    38Ap     3.901549    17App    4.010023  
      39Ap     4.058845    40Ap     4.080905    41Ap     4.181434  
      18App    4.197158    42Ap     4.275593    19App    4.428566  
      43Ap     4.665010    44Ap     4.753393    45Ap     4.988293  
      20App    4.993129    21App    5.067507    46Ap     5.159386  
      47Ap     5.208159    22App    5.226723    48Ap     5.291345  
      49Ap     5.356812    50Ap     5.406743    23App    5.505738  
      51Ap     5.542782    24App    5.747552    52Ap     5.811842  
      25App    5.920874    53Ap     6.081543    26App    6.167041  
      54Ap     6.322721    55Ap     6.464385    27App    6.584849  
      56Ap     6.658206    28App    6.749603    29App    6.772031  
      57Ap     6.776404    58Ap     6.822261    30App    6.836908  
      31App    6.890399    59Ap     6.898765    60Ap     6.951931  
      32App    7.054868    61Ap     7.111494    33App    7.185202  
      62Ap     7.226995    63Ap     7.368972    64Ap     7.473472  
      34App    7.622133    65Ap     7.674110    66Ap     7.909067  
      67Ap     8.073998    68Ap     8.540111    69Ap    11.221064  
      70Ap    12.642157  

    Final Occupation by Irrep:
             Ap   App 
    DOCC [    10,    2 ]
    SOCC [     0,    1 ]
    NA   [    10,    3 ]
    NB   [    10,    2 ]

  @ROHF Final Energy:  -225.00747924788169

   => Energetics <=

    Nuclear Repulsion Energy =             71.5137095404860901
    One-Electron Energy =                -452.3322458276155089
    Two-Electron Energy =                 155.8110570392477143
    Total Energy =                       -225.0074792478816903

Computation Completed


Properties will be evaluated at   0.000000,   0.000000,   0.000000 [a0]

Properties computed using the SCF density matrix


 Multipole Moments:

 ------------------------------------------------------------------------------------
     Multipole            Electronic (a.u.)      Nuclear  (a.u.)        Total (a.u.)
 ------------------------------------------------------------------------------------

 L = 1.  Multiply by 2.5417464519 to convert [e a0] to [Debye]
 Dipole X            :          1.0555636           -1.7127930           -0.6572294
 Dipole Y            :          0.5382129           -0.2277786            0.3104344
 Dipole Z            :          0.0000000            0.0000000            0.0000000
 Magnitude           :                                                    0.7268562

 ------------------------------------------------------------------------------------

*** tstop() called on na21 at Fri Jun  6 15:49:05 2025
Module time:
	user time   =      17.94 seconds =       0.30 minutes
	system time =       0.53 seconds =       0.01 minutes
	total time  =          2 seconds =       0.03 minutes
Total time:
	user time   =      17.94 seconds =       0.30 minutes
	system time =       0.53 seconds =       0.01 minutes
	total time  =          2 seconds =       0.03 minutes
 MINTS: Wrapper to libmints.
   by Justin Turney

   Calculation information:
      Number of threads:                40
      Number of atoms:                   4
      Number of AO shells:              36
      Number of SO shells:              36
      Number of primitives:             86
      Number of atomic orbitals:       120
      Number of basis functions:       104

      Number of irreps:                  2
      Integral cutoff                 1.00e-12
      Number of functions per irrep: [  70   34 ]

 OEINTS: Overlap, kinetic, potential, dipole, and quadrupole integrals
         stored in file 35.

      Computing two-electron integrals...done
      Computed 7248581 non-zero two-electron integrals.
        Stored in file 33.


*** tstart() called on na21
*** at Fri Jun  6 15:49:06 2025


	Wfn Parameters:
	--------------------
	Wavefunction         = CCSD_T
	Number of irreps     = 2
	Number of MOs        = 104
	Number of active MOs = 104
	AO-Basis             = NONE
	Semicanonical        = true
	Reference            = ROHF changed to UHF for semicanonical orbitals
	Print Level          = 1

	IRREP	# MOs	# FZDC	# DOCC	# SOCC	# VIRT	# FZVR
	-----	-----	------	------	------	------	------
	 Ap	   70	    0	    10	    0	    60	    0
	 App	   34	    0	    2	    1	    31	    0
	Transforming integrals...
	IWL integrals will be deleted.
	(OO|OO)...
	Presorting SO-basis two-electron integrals.
	Sorting File: SO Ints (nn|nn) nbuckets = 1
	Constructing frozen core operators
	Starting AA/AB first half-transformation.
	Sorting AA/AB half-transformed integrals.
	Starting BB first half-transformation.
	Sorting BB half-transformed integrals.
	First half integral transformation complete.
	Starting AA second half-transformation.
	Starting AB second half-transformation.
	Starting BB second half-transformation.
	Two-electron integral transformation complete.
	(OO|OV)...
	Starting AA second half-transformation.
	Starting AB second half-transformation.
	Starting BB second half-transformation.
	Two-electron integral transformation complete.
	(OO|VV)...
	Starting AA second half-transformation.
	Starting AB second half-transformation.
	Starting BB second half-transformation.
	Two-electron integral transformation complete.
	(OV|OO)...
	Starting AA/AB first half-transformation.
	Sorting AA/AB half-transformed integrals.
	Starting BB first half-transformation.
	Sorting BB half-transformed integrals.
	First half integral transformation complete.
	Starting AA second half-transformation.
	Starting AB second half-transformation.
	Starting BB second half-transformation.
	Two-electron integral transformation complete.
	(OV|OV)...
	Starting AA second half-transformation.
	Starting AB second half-transformation.
	Starting BB second half-transformation.
	Two-electron integral transformation complete.
	(OV|VV)...
	Starting AA second half-transformation.
	Starting AB second half-transformation.
	Starting BB second half-transformation.
	Two-electron integral transformation complete.
	(VV|OO)...
	Starting AA/AB first half-transformation.
	Sorting AA/AB half-transformed integrals.
	Starting BB first half-transformation.
	Sorting BB half-transformed integrals.
	First half integral transformation complete.
	Starting AA second half-transformation.
	Starting AB second half-transformation.
	Starting BB second half-transformation.
	Two-electron integral transformation complete.
	(VV|OV)...
	Starting AA second half-transformation.
	Starting AB second half-transformation.
	Starting BB second half-transformation.
	Two-electron integral transformation complete.
	(VV|VV)...
	Starting AA second half-transformation.
	Starting AB second half-transformation.
	Starting BB second half-transformation.
	Two-electron integral transformation complete.
	Frozen core energy     =      0.00000000000000

	Size of irrep 0 of <AB|CD> integrals:      4.995 (MW) /     39.962 (MB)
	Size of irrep 1 of <AB|CD> integrals:      3.460 (MW) /     27.677 (MB)
	Total:                                     8.455 (MW) /     67.639 (MB)

	Size of irrep 0 of <ab|cd> integrals:      5.135 (MW) /     41.078 (MB)
	Size of irrep 1 of <ab|cd> integrals:      3.686 (MW) /     29.491 (MB)
	Total:                                     8.821 (MW) /     70.569 (MB)

	Size of irrep 0 of <Ab|Cd> integrals:     21.086 (MW) /    168.692 (MB)
	Size of irrep 1 of <Ab|Cd> integrals:     14.288 (MW) /    114.307 (MB)
	Total:                                    35.375 (MW) /    282.999 (MB)

	Size of irrep 0 of <IA|BC> integrals:      3.161 (MW) /     25.286 (MB)
	Size of irrep 1 of <IA|BC> integrals:      1.823 (MW) /     14.582 (MB)
	Total:                                     4.984 (MW) /     39.869 (MB)

	Size of irrep 0 of <ia|bc> integrals:      3.070 (MW) /     24.563 (MB)
	Size of irrep 1 of <ia|bc> integrals:      1.690 (MW) /     13.517 (MB)
	Total:                                     4.760 (MW) /     38.079 (MB)

	Size of irrep 0 of <Ia|Bc> integrals:      3.196 (MW) /     25.568 (MB)
	Size of irrep 1 of <Ia|Bc> integrals:      1.890 (MW) /     15.120 (MB)
	Total:                                     5.086 (MW) /     40.688 (MB)

	Size of irrep 0 of <iA|bC> integrals:      3.040 (MW) /     24.319 (MB)
	Size of irrep 1 of <iA|bC> integrals:      1.625 (MW) /     13.003 (MB)
	Total:                                     4.665 (MW) /     37.322 (MB)

	Size of irrep 0 of tIjAb amplitudes:       0.487 (MW) /      3.894 (MB)
	Size of irrep 1 of tIjAb amplitudes:       0.189 (MW) /      1.512 (MB)
	Total:                                     0.676 (MW) /      5.406 (MB)

	Nuclear Rep. energy          =     71.51370954048609
	SCF energy                   =   -225.00747924788169
	One-electron energy          =   -452.33224558399769
	Two-electron (AA) energy     =     35.52748199674584
	Two-electron (BB) energy     =     30.13491052957683
	Two-electron (AB) energy     =     90.14866426930578
	Two-electron energy          =    155.81105679562847
	Reference energy             =   -225.00747924788317

*** tstop() called on na21 at Fri Jun  6 15:49:12 2025
Module time:
	user time   =      59.55 seconds =       0.99 minutes
	system time =       2.01 seconds =       0.03 minutes
	total time  =          6 seconds =       0.10 minutes
Total time:
	user time   =      78.72 seconds =       1.31 minutes
	system time =       2.72 seconds =       0.05 minutes
	total time  =          9 seconds =       0.15 minutes
            **************************
            *                        *
            *        CCENERGY        *
            *                        *
            **************************

    Nuclear Rep. energy (wfn)     =   71.513709540486090
    SCF energy          (wfn)     = -225.007479247881690
    Reference energy    (file100) = -225.007479247883168

    Input parameters:
    -----------------
    Wave function   =     CCSD_T
    Reference wfn   =     ROHF changed to UHF for Semicanonical Orbitals
    Brueckner       =     No
    Memory (Mbytes) =     100000.0
    Maxiter         =     50
    R_Convergence   =     1.0e-07
    E_Convergence   =     1.0e-06
    Restart         =     Yes
    DIIS            =     Yes
    AO Basis        =     NONE
    ABCD            =     NEW
    Cache Level     =     2
    Cache Type      =     LRU
    Print Level     =     1
    Num. of threads =     40
    # Amps to Print =     10
    Print MP2 Amps? =     No
    Analyze T2 Amps =     No
    Print Pair Ener =     No
    Local CC        =     No
    SCS-MP2         =     False
    SCSN-MP2        =     False
    SCS-CCSD        =     False

MP2 correlation energy -0.7508706473258572
                Solving CC Amplitude Equations
                ------------------------------
  Iter             Energy              RMS        T1Diag      D1Diag    New D1Diag    D2Diag
  ----     ---------------------    ---------   ----------  ----------  ----------   --------
     0        -0.750980044909745    0.000e+00    0.009654    0.000000    0.000000    0.000000
     1        -0.726391840692347    1.319e-01    0.024468    0.000000    0.000000    0.000000
     2        -0.753036745425599    4.949e-02    0.027035    0.000000    0.000000    0.000000
     3        -0.761375224937655    4.097e-02    0.036566    0.000000    0.000000    0.000000
     4        -0.762560943700436    2.180e-02    0.044303    0.000000    0.000000    0.000000
     5        -0.762830354239279    1.361e-02    0.050322    0.000000    0.000000    0.000000
     6        -0.763310358447141    5.129e-03    0.052614    0.000000    0.000000    0.000000
     7        -0.763305067600645    2.271e-03    0.052907    0.000000    0.000000    0.000000
     8        -0.763352731895006    1.326e-03    0.053159    0.000000    0.000000    0.000000
     9        -0.763390897232293    5.515e-04    0.053192    0.000000    0.000000    0.000000
    10        -0.763366877611156    3.851e-04    0.053238    0.000000    0.000000    0.000000
    11        -0.763374645640676    1.316e-04    0.053210    0.000000    0.000000    0.000000
    12        -0.763373021043398    7.108e-05    0.053225    0.000000    0.000000    0.000000
    13        -0.763375746496965    4.115e-05    0.053222    0.000000    0.000000    0.000000
    14        -0.763377749599320    2.328e-05    0.053227    0.000000    0.000000    0.000000
    15        -0.763376975886758    1.479e-05    0.053226    0.000000    0.000000    0.000000
    16        -0.763377195232716    8.129e-06    0.053227    0.000000    0.000000    0.000000
    17        -0.763377010103299    3.400e-06    0.053227    0.000000    0.000000    0.000000
    18        -0.763377033087972    1.384e-06    0.053227    0.000000    0.000000    0.000000
    19        -0.763377052704136    6.026e-07    0.053227    0.000000    0.000000    0.000000
    20        -0.763377023900078    2.962e-07    0.053227    0.000000    0.000000    0.000000
    21        -0.763377025236579    1.159e-07    0.053227    0.000000    0.000000    0.000000
    22        -0.763377022524272    4.590e-08    0.053227    0.000000    0.000000    0.000000

    Iterations converged.


    Largest TIA Amplitudes:
              8   0         0.0429110036
              9   0         0.0405024177
              7   0         0.0310997351
              6   0        -0.0251482782
              9   1        -0.0235529221
             12  60         0.0231246648
              9   9         0.0161396173
              5   0        -0.0159121107
              6   1         0.0158806028
              5   2        -0.0138677457

    Largest Tia Amplitudes:
             11  60         0.1691416182
             10  60         0.1191146178
              9   0        -0.0886359908
              9   1        -0.0538416085
              8   0        -0.0427172310
              6   0         0.0211951162
              7   0        -0.0201016607
              9   8        -0.0178890799
              8   1        -0.0165372851
              6   1         0.0155568699

    Largest TIJAB Amplitudes:
      7   6   2   0        -0.0138386170
     12   9  61   0         0.0124698575
      7   6   7   0         0.0113405335
     12   7  65   2         0.0108058378
      9   8   6   0        -0.0094872232
      9   7  15   2        -0.0092222099
     11   9  60   0        -0.0092064832
     11   8  61   3         0.0090322958
     12   9  64   0        -0.0086771530
      8   7   7   0         0.0085621881

    Largest Tijab Amplitudes:
     11   9  60   0        -0.0314383515
     10   7  60   2        -0.0306608996
     10   7  60   7        -0.0259669520
     10   6  60   0         0.0247772010
     11   7  60   2        -0.0218018910
     10   8  60   0        -0.0213727084
     11   9  60   1        -0.0187108215
     11   7  60   7        -0.0183694162
     11   9  61   0        -0.0168305070
     11   6  60   0         0.0166616059

    Largest TIjAb Amplitudes:
      9   9   0   0         0.0931519488
      9   9   0   1         0.0581603680
      9   9   1   0        -0.0473552682
      7  10   2  60        -0.0367234879
      9   9   1   1        -0.0343970831
      9  11   0  60         0.0339838870
      7   7   2   2        -0.0324632997
      6  10   0  60        -0.0316901481
      7   7   7   7         0.0305556558
      7  10   7  60         0.0299248922

    SCF energy       (wfn)                    = -225.007479247881690
    Reference energy (file100)                = -225.007479247883168

    Opposite-spin MP2 correlation energy      =   -0.554789643621675
    Same-spin MP2 correlation energy          =   -0.191093547247265
    Singles MP2 correlation energy            =   -0.004987456456918
    MP2 correlation energy                    =   -0.750870647325857
      * MP2 total energy                      = -225.758349895209022

    Opposite-spin CCSD correlation energy     =   -0.587466736945291
    Same-spin CCSD correlation energy         =   -0.170524600359613
    Singles CCSD correlation energy           =   -0.005385685219367
    CCSD correlation energy                   =   -0.763377022524272
      * CCSD total energy                     = -225.770856270407450

            **************************
            *                        *
            *        CCTRIPLES       *
            *                        *
            **************************


    Wave function   =    CCSD_T
    Reference wfn   =    ROHF changed to UHF for Semicanonical Orbitals

    Nuclear Rep. energy (wfn)                =   71.513709540486090
    SCF energy          (wfn)                = -225.007479247881690
    Reference energy    (file100)            = -225.007479247883168
    CCSD energy         (file100)            =   -0.763377022524272
    Total CCSD energy   (file100)            = -225.770856270407450

    Number of ijk index combinations:
    Spin Case AAA:                                 286
    Spin Case BBB:                                 220
    Spin Case AAB:                                 936
    Spin Case ABB:                                 858
    AAA (T) energy                             =   -0.000695563985949
    BBB (T) energy                             =   -0.001085779306884
    AAB (T) energy                             =   -0.016502924238576
    ABB (T) energy                             =   -0.017537250216337
    (T) energy                                   =   -0.035821517747745
      * CCSD(T) total energy                     = -225.806677788155184


    Psi4 stopped on: Friday, 06 June 2025 03:50PM
    Psi4 wall time for execution: 0:01:42.60

*** Psi4 exiting successfully. Buy a developer a beer!
