
    -----------------------------------------------------------------------
          Psi4: An Open-Source Ab Initio Electronic Structure Package
                               Psi4 1.9.1 release

                         Git: Rev {} zzzzzzz 


    D. G. A. Smith, L. A. Burns, A. C. Simmonett, R. M. Parrish,
    M. C. Schieber, R. Galvelis, P. Kraus, H. Kruse, R. Di Remigio,
    A. Alenaizan, A. M. James, S. Lehtola, J. P. Misiewicz, M. Scheurer,
    R. A. Shaw, J. B. Schriber, Y. Xie, Z. L. Glick, D. A. Sirianni,
    J. S. O'Brien, J. M. Waldrop, A. Kumar, E. G. Hohenstein,
    B. P. Pritchard, B. R. Brooks, H. F. Schaefer III, A. Yu. Sokolov,
    K. Patkowski, A. E. DePrince III, U. Bozkaya, R. A. King,
    F. A. Evangelista, J. M. Turney, T. D. Crawford, C. D. Sherrill,
    J. Chem. Phys. 152(18) 184108 (2020). https://doi.org/10.1063/5.0006002

                            Additional Code Authors
    E. T. Seidl, C. L. Janssen, E. F. Valeev, M. L. Leininger,
    J. F. Gonthier, R. M. Richard, H. R. McAlexander, M. Saitow, X. Wang,
    P. Verma, M. H. Lechner, A. Jiang, S. Behnle, A. G. Heide,
    M. F. Herbst, and D. L. Poole

             Previous Authors, Complete List of Code Contributors,
                       and Citations for Specific Modules
    https://github.com/psi4/psi4/blob/master/codemeta.json
    https://github.com/psi4/psi4/graphs/contributors
    http://psicode.org/psi4manual/master/introduction.html#citing-psifour

    -----------------------------------------------------------------------


    Psi4 started on: Wednesday, 04 June 2025 01:32PM

    Process ID: 771260
    Host:       nagpu01
    PSIDATADIR: /software-nas/eb2024/easybuild/software/rocky/8.9/amd/zen4/software/PSI4/1.9.1-foss-2023b/share/psi4
    Memory:     500.0 MiB
    Threads:    120
    
  ==> Input File <==

--------------------------------------------------------------------------
memory 600Gb

molecule{
0 2
Cl     -0.560974  -0.994637  0.000000
O     0.000000  0.958712  0.000000
O     1.192069  1.154892  0.000000
}

set reference rohf

energy("CCSD(T)/def2-QZVP")
--------------------------------------------------------------------------

  Memory set to 558.794 GiB by Python driver.

Scratch directory: /scratch/pobleyef/200321/
   => Libint2 <=

    Primary   basis highest AM E, G, H:  5, 4, 3
    Auxiliary basis highest AM E, G, H:  6, 5, 4
    Onebody   basis highest AM E, G, H:  6, 5, 4
    Solid Harmonics ordering:            Gaussian

*** tstart() called on nagpu01
*** at Wed Jun  4 13:32:02 2025

   => Loading Basis Set <=

    Name: DEF2-QZVP
    Role: ORBITAL
    Keyword: BASIS
    atoms 1   entry CL         line   809 file /software-nas/eb2024/easybuild/software/rocky/8.9/amd/zen4/software/PSI4/1.9.1-foss-2023b/share/psi4/basis/def2-qzvp.gbs 
    atoms 2-3 entry O          line   290 file /software-nas/eb2024/easybuild/software/rocky/8.9/amd/zen4/software/PSI4/1.9.1-foss-2023b/share/psi4/basis/def2-qzvp.gbs 


         ---------------------------------------------------------
                                   SCF
               by Justin Turney, Rob Parrish, Andy Simmonett
                          and Daniel G. A. Smith
                             ROHF Reference
                      120 Threads, 572204 MiB Core
         ---------------------------------------------------------

  ==> Geometry <==

    Molecular point group: cs
    Full point group: Cs

    Geometry (in Angstrom), charge = 0, multiplicity = 2:

       Center              X                  Y                   Z               Mass       
    ------------   -----------------  -----------------  -----------------  -----------------
         CL          -0.552766322175    -0.980084754085     0.000000000000    34.968852682000
         O            0.008207677825     0.973264245915     0.000000000000    15.994914619570
         O            1.200276677825     1.169444245915     0.000000000000    15.994914619570

  Running in cs symmetry.

  Rotational constants: A =      2.50227  B =      0.17271  C =      0.16156 [cm^-1]
  Rotational constants: A =  75016.07722  B =   5177.64972  C =   4843.35853 [MHz]
  Nuclear repulsion =   89.391751605706844

  Charge       = 0
  Multiplicity = 2
  Electrons    = 33
  Nalpha       = 17
  Nbeta        = 16

  ==> Algorithm <==

  SCF Algorithm Type is PK.
  DIIS enabled.
  MOM disabled.
  Fractional occupation disabled.
  Guess Type is SAD.
  Energy threshold   = 1.00e-08
  Density threshold  = 1.00e-08
  Integral threshold = 1.00e-12

  ==> Primary Basis <==

  Basis Set: DEF2-QZVP
    Blend: DEF2-QZVP
    Number of shells: 56
    Number of basis functions: 184
    Number of Cartesian functions: 230
    Spherical Harmonics?: true
    Max angular momentum: 4

  ==> Integral Setup <==

  Using in-core PK algorithm.
   Calculation information:
      Number of atoms:                   3
      Number of AO shells:              56
      Number of primitives:             99
      Number of atomic orbitals:       230
      Number of basis functions:       184

      Integral cutoff                 1.00e-12
      Number of threads:               120

  Performing in-core PK
  Using 289697420 doubles for integral storage.
  We computed 5923278 shell quartets total.
  Whereas there are 1274406 unique shell quartets.
   364.79 percent of shell quartets recomputed by reordering.

  ==> DiskJK: Disk-Based J/K Matrices <==

    J tasked:                  Yes
    K tasked:                  Yes
    wK tasked:                  No
    Memory [MiB]:           429153
    Schwarz Cutoff:          1E-12

    OpenMP threads:            120

  Minimum eigenvalue in the overlap matrix is 4.7928349467E-04.
  Reciprocal condition number of the overlap matrix is 8.7316664307E-05.
    Using symmetric orthogonalization.

  ==> Pre-Iterations <==

  SCF Guess: Superposition of Atomic Densities via on-the-fly atomic UHF (no occupation information).

   -------------------------
    Irrep   Nso     Nmo    
   -------------------------
     A'       120     120 
     A"        64      64 
   -------------------------
    Total     184     184
   -------------------------

  ==> Iterations <==

                        Total Energy        Delta E     RMS |[F,P]|

   @ROHF iter SAD:  -608.25904271228546   -6.08259e+02   0.00000e+00 
   @ROHF iter   1:  -608.97967402470283   -7.20631e-01   2.51101e-03 DIIS
   @ROHF iter   2:  -608.99782219639030   -1.81482e-02   2.50372e-03 DIIS
   @ROHF iter   3:  -609.07427506476847   -7.64529e-02   3.48889e-04 DIIS
   @ROHF iter   4:  -609.07909701525045   -4.82195e-03   2.37736e-04 DIIS
   @ROHF iter   5:  -609.08236697105463   -3.26996e-03   1.79695e-04 DIIS
   @ROHF iter   6:  -609.08506720530465   -2.70023e-03   1.36854e-04 DIIS
   @ROHF iter   7:  -609.08643354922401   -1.36634e-03   4.19550e-05 DIIS
   @ROHF iter   8:  -609.08648052185208   -4.69726e-05   2.29958e-05 DIIS
   @ROHF iter   9:  -609.08651564568356   -3.51238e-05   7.79904e-06 DIIS
   @ROHF iter  10:  -609.08652022859144   -4.58291e-06   3.73738e-06 DIIS
   @ROHF iter  11:  -609.08652103867882   -8.10087e-07   1.06095e-06 DIIS
   @ROHF iter  12:  -609.08652112566972   -8.69909e-08   3.33780e-07 DIIS
   @ROHF iter  13:  -609.08652113774576   -1.20760e-08   2.03819e-07 DIIS
   @ROHF iter  14:  -609.08652114157394   -3.82818e-09   8.68754e-08 DIIS
   @ROHF iter  15:  -609.08652114239987   -8.25935e-10   3.14997e-08 DIIS
   @ROHF iter  16:  -609.08652114250503   -1.05160e-10   1.21090e-08 DIIS
   @ROHF iter  17:  -609.08652114251493   -9.89075e-12   4.42952e-09 DIIS
  Energy and wave function converged.


  ==> Post-Iterations <==

    Orbital Energies [Eh]
    ---------------------

    Doubly Occupied:                                                      

       1Ap  -104.881049     2Ap   -20.794060     3Ap   -20.742481  
       4Ap   -10.601662     5Ap    -8.068265     6Ap    -8.066028  
       1App   -8.065963     7Ap    -1.688325     8Ap    -1.166593  
       9Ap    -1.055292    10Ap    -0.769972    11Ap    -0.749599  
       2App   -0.743384    12Ap    -0.483670     3App   -0.482424  
      13Ap    -0.455379  

    Singly Occupied:                                                      

       4App   -0.244806  

    Virtual:                                                              

      14Ap    -0.025921    15Ap     0.240358    16Ap     0.269733  
       5App    0.282609    17Ap     0.305990    18Ap     0.340121  
       6App    0.351124    19Ap     0.357718    20Ap     0.391443  
       7App    0.415779    21Ap     0.443149    22Ap     0.496332  
       8App    0.497798    23Ap     0.537465     9App    0.544424  
      24Ap     0.609262    25Ap     0.644920    26Ap     0.830575  
      27Ap     0.837871    10App    1.061960    28Ap     1.102666  
      11App    1.196652    29Ap     1.238299    12App    1.274007  
      30Ap     1.323521    31Ap     1.336732    32Ap     1.366108  
      13App    1.372515    33Ap     1.409264    34Ap     1.412165  
      14App    1.415065    15App    1.454866    35Ap     1.465516  
      36Ap     1.479939    16App    1.523099    37Ap     1.523138  
      17App    1.539727    38Ap     1.547398    18App    1.564959  
      39Ap     1.570349    19App    1.586867    40Ap     1.623330  
      41Ap     1.754027    42Ap     1.834623    20App    1.942048  
      21App    1.947405    43Ap     2.010088    44Ap     2.084139  
      45Ap     2.125036    46Ap     2.215078    47Ap     2.637482  
      48Ap     3.096487    22App    3.114638    49Ap     3.126190  
      23App    3.166159    50Ap     3.217135    24App    3.298603  
      51Ap     3.404365    25App    3.445435    52Ap     3.476009  
      26App    3.572600    53Ap     3.578562    54Ap     3.617971  
      27App    3.667111    55Ap     3.756440    56Ap     3.786244  
      57Ap     3.867417    28App    3.872895    58Ap     3.905169  
      29App    3.909819    30App    3.932180    59Ap     3.932222  
      60Ap     3.954822    31App    4.004046    61Ap     4.031413  
      32App    4.041318    62Ap     4.052862    63Ap     4.120154  
      33App    4.201438    64Ap     4.221577    34App    4.240059  
      65Ap     4.253223    35App    4.256142    66Ap     4.270243  
      36App    4.273161    37App    4.289964    67Ap     4.292235  
      68Ap     4.338974    69Ap     4.387175    38App    4.399977  
      39App    4.435634    70Ap     4.502761    71Ap     4.558708  
      72Ap     4.656704    40App    4.745399    73Ap     4.799483  
      74Ap     4.911857    41App    4.946603    75Ap     5.031528  
      76Ap     5.220592    77Ap     5.310901    42App    5.318263  
      78Ap     5.425989    79Ap     5.606922    43App    5.938761  
      80Ap     6.208213    81Ap     8.269685    44App    8.572439  
      82Ap     8.585358    83Ap     8.687837    45App    8.800189  
      84Ap     8.852500    46App    9.005703    85Ap     9.072744  
      47App    9.154876    86Ap     9.156159    87Ap     9.213102  
      48App    9.293562    88Ap     9.311716    49App    9.722351  
      89Ap     9.738073    50App   10.808554    90Ap    10.814925  
      91Ap    10.938278    51App   11.050554    92Ap    11.087704  
      52App   11.234056    53App   11.239303    93Ap    11.244416  
      94Ap    11.280473    95Ap    11.285338    54App   11.322336  
      96Ap    11.358906    55App   11.425438    97Ap    11.456149  
      56App   11.564449    98Ap    11.752245    57App   11.801359  
      99Ap    11.897788   100Ap    11.940905    58App   11.977978  
     101Ap    11.986158   102Ap    12.082859    59App   12.194003  
     103Ap    12.295622    60App   12.368034    61App   12.413516  
     104Ap    12.444236   105Ap    12.498915    62App   12.634086  
     106Ap    12.709887   107Ap    12.935913   108Ap    14.081699  
      63App   14.419994   109Ap    14.450739   110Ap    14.542826  
     111Ap    16.388415   112Ap    29.435412    64App   43.238283  
     113Ap    43.238650   114Ap    43.253166   115Ap    48.396446  
     116Ap    49.128170   117Ap    99.865759   118Ap   255.155368  
     119Ap   255.940961   120Ap   529.879896  

    Final Occupation by Irrep:
             Ap   App 
    DOCC [    13,    3 ]
    SOCC [     0,    1 ]
    NA   [    13,    4 ]
    NB   [    13,    3 ]

  @ROHF Final Energy:  -609.08652114251493

   => Energetics <=

    Nuclear Repulsion Energy =             89.3917516057068440
    One-Electron Energy =               -1018.7302832519110325
    Two-Electron Energy =                 320.2520105036892346
    Total Energy =                       -609.0865211425149255

Computation Completed


Properties will be evaluated at   0.000000,   0.000000,   0.000000 [a0]

Properties computed using the SCF density matrix


 Multipole Moments:

 ------------------------------------------------------------------------------------
     Multipole            Electronic (a.u.)      Nuclear  (a.u.)        Total (a.u.)
 ------------------------------------------------------------------------------------

 L = 1.  Multiply by 2.5417464519 to convert [e a0] to [Debye]
 Dipole X            :         -0.3627716            0.5118273            0.1490557
 Dipole Y            :         -0.6796768            0.9074977            0.2278209
 Dipole Z            :          0.0000000            0.0000000            0.0000000
 Magnitude           :                                                    0.2722499

 ------------------------------------------------------------------------------------

*** tstop() called on nagpu01 at Wed Jun  4 13:32:29 2025
Module time:
	user time   =    1302.96 seconds =      21.72 minutes
	system time =       9.14 seconds =       0.15 minutes
	total time  =         27 seconds =       0.45 minutes
Total time:
	user time   =    1302.96 seconds =      21.72 minutes
	system time =       9.14 seconds =       0.15 minutes
	total time  =         27 seconds =       0.45 minutes
 MINTS: Wrapper to libmints.
   by Justin Turney

   Calculation information:
      Number of threads:               120
      Number of atoms:                   3
      Number of AO shells:              56
      Number of SO shells:              56
      Number of primitives:             99
      Number of atomic orbitals:       230
      Number of basis functions:       184

      Number of irreps:                  2
      Integral cutoff                 1.00e-12
      Number of functions per irrep: [ 120   64 ]

 OEINTS: Overlap, kinetic, potential, dipole, and quadrupole integrals
         stored in file 35.

      Computing two-electron integrals...done
      Computed 61554380 non-zero two-electron integrals.
        Stored in file 33.


*** tstart() called on nagpu01
*** at Wed Jun  4 13:32:36 2025


	Wfn Parameters:
	--------------------
	Wavefunction         = CCSD_T
	Number of irreps     = 2
	Number of MOs        = 184
	Number of active MOs = 184
	AO-Basis             = NONE
	Semicanonical        = true
	Reference            = ROHF changed to UHF for semicanonical orbitals
	Print Level          = 1

	IRREP	# MOs	# FZDC	# DOCC	# SOCC	# VIRT	# FZVR
	-----	-----	------	------	------	------	------
	 Ap	   120	    0	    13	    0	    107	    0
	 App	   64	    0	    3	    1	    60	    0
	Transforming integrals...
	IWL integrals will be deleted.
	(OO|OO)...
	Presorting SO-basis two-electron integrals.
	Sorting File: SO Ints (nn|nn) nbuckets = 1
	Constructing frozen core operators
	Starting AA/AB first half-transformation.
	Sorting AA/AB half-transformed integrals.
	Starting BB first half-transformation.
	Sorting BB half-transformed integrals.
	First half integral transformation complete.
	Starting AA second half-transformation.
	Starting AB second half-transformation.
	Starting BB second half-transformation.
	Two-electron integral transformation complete.
	(OO|OV)...
	Starting AA second half-transformation.
	Starting AB second half-transformation.
	Starting BB second half-transformation.
	Two-electron integral transformation complete.
	(OO|VV)...
	Starting AA second half-transformation.
	Starting AB second half-transformation.
	Starting BB second half-transformation.
	Two-electron integral transformation complete.
	(OV|OO)...
	Starting AA/AB first half-transformation.
	Sorting AA/AB half-transformed integrals.
	Starting BB first half-transformation.
	Sorting BB half-transformed integrals.
	First half integral transformation complete.
	Starting AA second half-transformation.
	Starting AB second half-transformation.
	Starting BB second half-transformation.
	Two-electron integral transformation complete.
	(OV|OV)...
	Starting AA second half-transformation.
	Starting AB second half-transformation.
	Starting BB second half-transformation.
	Two-electron integral transformation complete.
	(OV|VV)...
	Starting AA second half-transformation.
	Starting AB second half-transformation.
	Starting BB second half-transformation.
	Two-electron integral transformation complete.
	(VV|OO)...
	Starting AA/AB first half-transformation.
	Sorting AA/AB half-transformed integrals.
	Starting BB first half-transformation.
	Sorting BB half-transformed integrals.
	First half integral transformation complete.
	Starting AA second half-transformation.
	Starting AB second half-transformation.
	Starting BB second half-transformation.
	Two-electron integral transformation complete.
	(VV|OV)...
	Starting AA second half-transformation.
	Starting AB second half-transformation.
	Starting BB second half-transformation.
	Two-electron integral transformation complete.
	(VV|VV)...
	Starting AA second half-transformation.
	Starting AB second half-transformation.
	Starting BB second half-transformation.
	Two-electron integral transformation complete.
	Frozen core energy     =      0.00000000000000

	Size of irrep 0 of <AB|CD> integrals:     55.368 (MW) /    442.948 (MB)
	Size of irrep 1 of <AB|CD> integrals:     41.216 (MW) /    329.731 (MB)
	Total:                                    96.585 (MW) /    772.679 (MB)

	Size of irrep 0 of <ab|cd> integrals:     56.265 (MW) /    450.120 (MB)
	Size of irrep 1 of <ab|cd> integrals:     42.602 (MW) /    340.814 (MB)
	Total:                                    98.867 (MW) /    790.934 (MB)

	Size of irrep 0 of <Ab|Cd> integrals:    228.282 (MW) /   1826.255 (MB)
	Size of irrep 1 of <Ab|Cd> integrals:    167.625 (MW) /   1340.998 (MB)
	Total:                                   395.907 (MW) /   3167.254 (MB)

	Size of irrep 0 of <IA|BC> integrals:     24.545 (MW) /    196.359 (MB)
	Size of irrep 1 of <IA|BC> integrals:     15.511 (MW) /    124.086 (MB)
	Total:                                    40.056 (MW) /    320.445 (MB)

	Size of irrep 0 of <ia|bc> integrals:     23.878 (MW) /    191.021 (MB)
	Size of irrep 1 of <ia|bc> integrals:     14.542 (MW) /    116.337 (MB)
	Total:                                    38.420 (MW) /    307.358 (MB)

	Size of irrep 0 of <Ia|Bc> integrals:     24.703 (MW) /    197.626 (MB)
	Size of irrep 1 of <Ia|Bc> integrals:     15.808 (MW) /    126.466 (MB)
	Total:                                    40.512 (MW) /    324.092 (MB)

	Size of irrep 0 of <iA|bC> integrals:     23.736 (MW) /    189.890 (MB)
	Size of irrep 1 of <iA|bC> integrals:     14.255 (MW) /    114.037 (MB)
	Total:                                    37.991 (MW) /    303.927 (MB)

	Size of irrep 0 of tIjAb amplitudes:       2.735 (MW) /     21.878 (MB)
	Size of irrep 1 of tIjAb amplitudes:       1.178 (MW) /      9.425 (MB)
	Total:                                     3.913 (MW) /     31.303 (MB)

	Nuclear Rep. energy          =     89.39175160570684
	SCF energy                   =   -609.08652114251493
	One-electron energy          =  -1018.73028379401035
	Two-electron (AA) energy     =     72.23466804380548
	Two-electron (BB) energy     =     66.17766520902697
	Two-electron (AB) energy     =    181.83967779295392
	Two-electron energy          =    320.25201104578639
	Reference energy             =   -609.08652114251709

*** tstop() called on nagpu01 at Wed Jun  4 13:34:18 2025
Module time:
	user time   =    7946.60 seconds =     132.44 minutes
	system time =      29.02 seconds =       0.48 minutes
	total time  =        102 seconds =       1.70 minutes
Total time:
	user time   =    9279.06 seconds =     154.65 minutes
	system time =      39.53 seconds =       0.66 minutes
	total time  =        136 seconds =       2.27 minutes
            **************************
            *                        *
            *        CCENERGY        *
            *                        *
            **************************

    Nuclear Rep. energy (wfn)     =   89.391751605706844
    SCF energy          (wfn)     = -609.086521142514925
    Reference energy    (file100) = -609.086521142517086

    Input parameters:
    -----------------
    Wave function   =     CCSD_T
    Reference wfn   =     ROHF changed to UHF for Semicanonical Orbitals
    Brueckner       =     No
    Memory (Mbytes) =     600000.0
    Maxiter         =     50
    R_Convergence   =     1.0e-07
    E_Convergence   =     1.0e-06
    Restart         =     Yes
    DIIS            =     Yes
    AO Basis        =     NONE
    ABCD            =     NEW
    Cache Level     =     2
    Cache Type      =     LRU
    Print Level     =     1
    Num. of threads =     120
    # Amps to Print =     10
    Print MP2 Amps? =     No
    Analyze T2 Amps =     No
    Print Pair Ener =     No
    Local CC        =     No
    SCS-MP2         =     False
    SCSN-MP2        =     False
    SCS-CCSD        =     False

MP2 correlation energy -0.9869259242458199
                Solving CC Amplitude Equations
                ------------------------------
  Iter             Energy              RMS        T1Diag      D1Diag    New D1Diag    D2Diag
  ----     ---------------------    ---------   ----------  ----------  ----------   --------
     0        -0.987052745583223    0.000e+00    0.008991    0.000000    0.000000    0.000000
     1        -0.959116775536149    1.492e-01    0.023504    0.000000    0.000000    0.000000
     2        -0.987684124655632    6.276e-02    0.024903    0.000000    0.000000    0.000000
     3        -0.997370003637223    4.566e-02    0.033207    0.000000    0.000000    0.000000
     4        -0.998913213237466    2.506e-02    0.040178    0.000000    0.000000    0.000000
     5        -0.999082702946166    1.695e-02    0.046358    0.000000    0.000000    0.000000
     6        -0.999679378390539    8.277e-03    0.048951    0.000000    0.000000    0.000000
     7        -0.999939578550314    5.329e-03    0.050137    0.000000    0.000000    0.000000
     8        -1.000003691410641    3.772e-03    0.050898    0.000000    0.000000    0.000000
     9        -1.000230546069309    2.829e-03    0.051471    0.000000    0.000000    0.000000
    10        -1.000221731696263    2.173e-03    0.052388    0.000000    0.000000    0.000000
    11        -1.000219608080728    1.523e-03    0.052438    0.000000    0.000000    0.000000
    12        -1.000298191530080    8.206e-04    0.052773    0.000000    0.000000    0.000000
    13        -1.000298118669636    5.535e-04    0.052788    0.000000    0.000000    0.000000
    14        -1.000321245112480    2.537e-04    0.052819    0.000000    0.000000    0.000000
    15        -1.000321986397974    1.270e-04    0.052842    0.000000    0.000000    0.000000
    16        -1.000327115715282    6.771e-05    0.052852    0.000000    0.000000    0.000000
    17        -1.000327983873712    3.750e-05    0.052859    0.000000    0.000000    0.000000
    18        -1.000327646168377    2.387e-05    0.052859    0.000000    0.000000    0.000000
    19        -1.000326986420834    1.522e-05    0.052856    0.000000    0.000000    0.000000
    20        -1.000326529785803    8.534e-06    0.052855    0.000000    0.000000    0.000000
    21        -1.000326320005851    5.333e-06    0.052855    0.000000    0.000000    0.000000
    22        -1.000326656367682    3.575e-06    0.052857    0.000000    0.000000    0.000000
    23        -1.000326775001338    1.807e-06    0.052857    0.000000    0.000000    0.000000
    24        -1.000326895137073    9.409e-07    0.052858    0.000000    0.000000    0.000000
    25        -1.000326924935317    5.535e-07    0.052858    0.000000    0.000000    0.000000
    26        -1.000326921935946    3.023e-07    0.052858    0.000000    0.000000    0.000000
    27        -1.000326928298300    2.117e-07    0.052858    0.000000    0.000000    0.000000
    28        -1.000326928197023    1.090e-07    0.052858    0.000000    0.000000    0.000000
    29        -1.000326926886871    8.064e-08    0.052858    0.000000    0.000000    0.000000

    Iterations converged.


    Largest TIA Amplitudes:
             10   0         0.0780744306
              9   0         0.0253074015
             12   0         0.0218476339
             12  11        -0.0208412775
             10  11        -0.0187139161
              7   0        -0.0151635720
              7   9         0.0148819051
             11   0        -0.0143138940
             10   2        -0.0137524701
             14 118        -0.0128345885

    Largest Tia Amplitudes:
             14 107         0.1735616848
             12   0        -0.1660741709
             15 107        -0.0930869764
             10   0         0.0820691339
             14 110        -0.0337200844
             11   0        -0.0233030705
              9   0         0.0209352446
             12   2        -0.0202364182
             14 111        -0.0185758960
             10  11        -0.0177545000

    Largest TIJAB Amplitudes:
     16  11 110   8         0.0218394531
     10   9   9   0         0.0206140461
     12  11   6   0        -0.0141769088
     16  11 110   7         0.0141526331
     16  12 107   0         0.0133393349
     16  11 110   9        -0.0116279995
     16  12 111   0         0.0116188542
     10   9   8   0         0.0116081915
     15  12 109   0         0.0112098445
     15   9 113   9         0.0110329796

    Largest Tijab Amplitudes:
     14  10 107   0         0.0577748593
     14   9 107   9        -0.0379730425
     10   9   9   0        -0.0278666564
     15  12 107   0         0.0233157748
     14  12 107   0        -0.0228837305
     15  11 111   8        -0.0216829993
     14  10 110   0        -0.0179865977
     15  12 108   0         0.0158585795
     15  11 110   8         0.0151458178
     15  10 107   0        -0.0149110245

    Largest TIjAb Amplitudes:
     12  12   0   0        -0.1767126267
     10  14   0 107         0.0590990514
     10  10   0   0        -0.0478899721
      9  14   9 107         0.0407058465
     12  10   0   0        -0.0390320081
      9   9   9   9         0.0374849550
     12  12   0   2        -0.0345987805
     12  12   2   0         0.0343114126
     10  12   0   0        -0.0319489832
      9  10   9   0        -0.0309329980

    SCF energy       (wfn)                    = -609.086521142514925
    Reference energy (file100)                = -609.086521142517086

    Opposite-spin MP2 correlation energy      =   -0.730185446461381
    Same-spin MP2 correlation energy          =   -0.251433331995128
    Singles MP2 correlation energy            =   -0.005307145789311
    MP2 correlation energy                    =   -0.986925924245820
      * MP2 total energy                      = -610.073447066762924

    Opposite-spin CCSD correlation energy     =   -0.762561591144363
    Same-spin CCSD correlation energy         =   -0.231608439216465
    Singles CCSD correlation energy           =   -0.006156896526044
    CCSD correlation energy                   =   -1.000326926886871
      * CCSD total energy                     = -610.086848069403914

            **************************
            *                        *
            *        CCTRIPLES       *
            *                        *
            **************************


    Wave function   =    CCSD_T
    Reference wfn   =    ROHF changed to UHF for Semicanonical Orbitals

    Nuclear Rep. energy (wfn)                =   89.391751605706844
    SCF energy          (wfn)                = -609.086521142514925
    Reference energy    (file100)            = -609.086521142517086
    CCSD energy         (file100)            =   -1.000326926886871
    Total CCSD energy   (file100)            = -610.086848069403914

    Number of ijk index combinations:
    Spin Case AAA:                                 680
    Spin Case BBB:                                 560
    Spin Case AAB:                                2176
    Spin Case ABB:                                2040
    AAA (T) energy                             =   -0.000958116092593
    BBB (T) energy                             =   -0.001426734741443
    AAB (T) energy                             =   -0.021684189711049
    ABB (T) energy                             =   -0.023388658338656
    (T) energy                                   =   -0.047457698883740
      * CCSD(T) total energy                     = -610.134305768287732


    Psi4 stopped on: Wednesday, 04 June 2025 01:59PM
    Psi4 wall time for execution: 0:27:31.67

*** Psi4 exiting successfully. Buy a developer a beer!
