
    -----------------------------------------------------------------------
          Psi4: An Open-Source Ab Initio Electronic Structure Package
                               Psi4 1.9.1 release

                         Git: Rev {} zzzzzzz 


    D. G. A. Smith, L. A. Burns, A. C. Simmonett, R. M. Parrish,
    M. C. Schieber, R. Galvelis, P. Kraus, H. Kruse, R. Di Remigio,
    A. Alenaizan, A. M. James, S. Lehtola, J. P. Misiewicz, M. Scheurer,
    R. A. Shaw, J. B. Schriber, Y. Xie, Z. L. Glick, D. A. Sirianni,
    J. S. O'Brien, J. M. Waldrop, A. Kumar, E. G. Hohenstein,
    B. P. Pritchard, B. R. Brooks, H. F. Schaefer III, A. Yu. Sokolov,
    K. Patkowski, A. E. DePrince III, U. Bozkaya, R. A. King,
    F. A. Evangelista, J. M. Turney, T. D. Crawford, C. D. Sherrill,
    J. Chem. Phys. 152(18) 184108 (2020). https://doi.org/10.1063/5.0006002

                            Additional Code Authors
    E. T. Seidl, C. L. Janssen, E. F. Valeev, M. L. Leininger,
    J. F. Gonthier, R. M. Richard, H. R. McAlexander, M. Saitow, X. Wang,
    P. Verma, M. H. Lechner, A. Jiang, S. Behnle, A. G. Heide,
    M. F. Herbst, and D. L. Poole

             Previous Authors, Complete List of Code Contributors,
                       and Citations for Specific Modules
    https://github.com/psi4/psi4/blob/master/codemeta.json
    https://github.com/psi4/psi4/graphs/contributors
    http://psicode.org/psi4manual/master/introduction.html#citing-psifour

    -----------------------------------------------------------------------


    Psi4 started on: Friday, 06 June 2025 12:12AM

    Process ID: 577404
    Host:       nh002
    PSIDATADIR: /software-nas/eb2024/easybuild/software/rocky/8.9/intel/cascadelake/software/PSI4/1.9.1-foss-2023b/share/psi4
    Memory:     500.0 MiB
    Threads:    40
    
  ==> Input File <==

--------------------------------------------------------------------------
memory 100Gb

molecule{
0 2
H     -0.26904536  -1.53918757  0.00000000
O     -0.82676854  -0.22999776  0.00000000
N     0.03423988  0.64855342  0.00000000
N     1.06157401  1.12063191  0.00000000
}

set reference rohf

properties("CCSD/def2-QZVP", properties=["NO_OCCUPATIONS"])
--------------------------------------------------------------------------

  Memory set to  93.132 GiB by Python driver.
   => Libint2 <=

    Primary   basis highest AM E, G, H:  5, 4, 3
    Auxiliary basis highest AM E, G, H:  6, 5, 4
    Onebody   basis highest AM E, G, H:  6, 5, 4
    Solid Harmonics ordering:            Gaussian

*** tstart() called on nh002
*** at Fri Jun  6 00:12:33 2025

   => Loading Basis Set <=

    Name: DEF2-QZVP
    Role: ORBITAL
    Keyword: BASIS
    atoms 1   entry H          line    15 file /software-nas/eb2024/easybuild/software/rocky/8.9/intel/cascadelake/software/PSI4/1.9.1-foss-2023b/share/psi4/basis/def2-qzvp.gbs 
    atoms 2   entry O          line   290 file /software-nas/eb2024/easybuild/software/rocky/8.9/intel/cascadelake/software/PSI4/1.9.1-foss-2023b/share/psi4/basis/def2-qzvp.gbs 
    atoms 3-4 entry N          line   242 file /software-nas/eb2024/easybuild/software/rocky/8.9/intel/cascadelake/software/PSI4/1.9.1-foss-2023b/share/psi4/basis/def2-qzvp.gbs 


         ---------------------------------------------------------
                                   SCF
               by Justin Turney, Rob Parrish, Andy Simmonett
                          and Daniel G. A. Smith
                             ROHF Reference
                       40 Threads,  95367 MiB Core
         ---------------------------------------------------------

  ==> Geometry <==

    Molecular point group: cs
    Full point group: Cs

    Geometry (in Angstrom), charge = 0, multiplicity = 2:

       Center              X                  Y                   Z               Mass       
    ------------   -----------------  -----------------  -----------------  -----------------
         H           -0.310137691689    -1.973413071298     0.000000000000     1.007825032230
         O           -0.867860871689    -0.664223261298     0.000000000000    15.994914619570
         N           -0.006852451689     0.214327918702     0.000000000000    14.003074004430
         N            1.020481678311     0.686406408702     0.000000000000    14.003074004430

  Running in cs symmetry.

  Rotational constants: A =      7.04094  B =      0.39613  C =      0.37503 [cm^-1]
  Rotational constants: A = 211082.05126  B =  11875.75171  C =  11243.19489 [MHz]
  Nuclear repulsion =   65.686376502236641

  Charge       = 0
  Multiplicity = 2
  Electrons    = 23
  Nalpha       = 12
  Nbeta        = 11

  ==> Algorithm <==

  SCF Algorithm Type is PK.
  DIIS enabled.
  MOM disabled.
  Fractional occupation disabled.
  Guess Type is SAD.
  Energy threshold   = 1.00e-10
  Density threshold  = 1.00e-10
  Integral threshold = 1.00e-12

  ==> Primary Basis <==

  Basis Set: DEF2-QZVP
    Blend: DEF2-QZVP
    Number of shells: 61
    Number of basis functions: 201
    Number of Cartesian functions: 251
    Spherical Harmonics?: true
    Max angular momentum: 4

  ==> Integral Setup <==

  Using in-core PK algorithm.
   Calculation information:
      Number of atoms:                   4
      Number of AO shells:              61
      Number of primitives:            100
      Number of atomic orbitals:       251
      Number of basis functions:       201

      Integral cutoff                 1.00e-12
      Number of threads:                40

  Performing in-core PK
  Using 412150902 doubles for integral storage.
  We computed 4234419 shell quartets total.
  Whereas there are 1788886 unique shell quartets.
   136.71 percent of shell quartets recomputed by reordering.

  ==> DiskJK: Disk-Based J/K Matrices <==

    J tasked:                  Yes
    K tasked:                  Yes
    wK tasked:                  No
    Memory [MiB]:            71525
    Schwarz Cutoff:          1E-12

    OpenMP threads:             40

  Minimum eigenvalue in the overlap matrix is 1.1127985103E-04.
  Reciprocal condition number of the overlap matrix is 1.6900624567E-05.
    Using symmetric orthogonalization.

  ==> Pre-Iterations <==

  SCF Guess: Superposition of Atomic Densities via on-the-fly atomic UHF (no occupation information).

   -------------------------
    Irrep   Nso     Nmo    
   -------------------------
     A'       131     131 
     A"        70      70 
   -------------------------
    Total     201     201
   -------------------------

  ==> Iterations <==

                        Total Energy        Delta E     RMS |[F,P]|

   @ROHF iter SAD:  -183.54760729223034   -1.83548e+02   0.00000e+00 
   @ROHF iter   1:  -184.11071927646418   -5.63112e-01   2.03158e-03 DIIS
   @ROHF iter   2:  -184.14275856621268   -3.20393e-02   1.84647e-03 DIIS
   @ROHF iter   3:  -184.19563223094454   -5.28737e-02   3.75349e-04 DIIS
   @ROHF iter   4:  -184.20011940115279   -4.48717e-03   2.26050e-04 DIIS
   @ROHF iter   5:  -184.20322022169432   -3.10082e-03   1.55491e-04 DIIS
   @ROHF iter   6:  -184.20698622103589   -3.76600e-03   1.44584e-04 DIIS
   @ROHF iter   7:  -184.20945578130966   -2.46956e-03   9.10012e-05 DIIS
   @ROHF iter   8:  -184.21045018287467   -9.94402e-04   3.77814e-05 DIIS
   @ROHF iter   9:  -184.21056720461138   -1.17022e-04   1.21934e-05 DIIS
   @ROHF iter  10:  -184.21058560723199   -1.84026e-05   8.51495e-06 DIIS
   @ROHF iter  11:  -184.21058657444630   -9.67214e-07   7.83994e-06 DIIS
   @ROHF iter  12:  -184.21059648669612   -9.91225e-06   2.98588e-06 DIIS
   @ROHF iter  13:  -184.21059775147071   -1.26477e-06   7.99670e-07 DIIS
   @ROHF iter  14:  -184.21059780310961   -5.16389e-08   5.43436e-07 DIIS
   @ROHF iter  15:  -184.21059782500456   -2.18949e-08   1.75124e-07 DIIS
   @ROHF iter  16:  -184.21059782638625   -1.38169e-09   7.74390e-08 DIIS
   @ROHF iter  17:  -184.21059782706939   -6.83144e-10   1.24863e-08 DIIS
   @ROHF iter  18:  -184.21059782707897   -9.57812e-12   5.78205e-09 DIIS
   @ROHF iter  19:  -184.21059782708031   -1.33582e-12   1.83922e-09 DIIS
   @ROHF iter  20:  -184.21059782708048   -1.70530e-13   4.39988e-10 DIIS
   @ROHF iter  21:  -184.21059782708031    1.70530e-13   1.84062e-10 DIIS
   @ROHF iter  22:  -184.21059782708065   -3.41061e-13   5.76011e-11 DIIS
  Energy and wave function converged.


  ==> Post-Iterations <==

    Orbital Energies [Eh]
    ---------------------

    Doubly Occupied:                                                      

       1Ap   -20.677745     2Ap   -15.843110     3Ap   -15.725739  
       4Ap    -1.605072     5Ap    -1.425581     6Ap    -0.871109  
       7Ap    -0.769608     1App   -0.761090     8Ap    -0.718230  
       9Ap    -0.539767     2App   -0.519482  

    Singly Occupied:                                                      

      10Ap    -0.105775  

    Virtual:                                                              

      11Ap     0.097829     3App    0.117969    12Ap     0.211363  
      13Ap     0.231089     4App    0.267193    14Ap     0.267592  
      15Ap     0.303067    16Ap     0.341633    17Ap     0.359358  
       5App    0.366578    18Ap     0.424804     6App    0.454654  
      19Ap     0.478129    20Ap     0.530568     7App    0.642491  
      21Ap     0.659419    22Ap     0.679526     8App    0.757037  
      23Ap     0.820764    24Ap     0.892961    25Ap     0.933789  
      26Ap     0.947512     9App    1.042197    10App    1.095979  
      27Ap     1.102908    28Ap     1.111192    29Ap     1.198779  
      11App    1.214821    30Ap     1.250255    31Ap     1.276688  
      32Ap     1.328549    12App    1.334142    13App    1.398419  
      33Ap     1.424627    34Ap     1.505030    14App    1.557491  
      35Ap     1.570152    36Ap     1.593630    15App    1.644009  
      37Ap     1.657070    38Ap     1.726918    39Ap     1.918557  
      16App    1.951931    40Ap     2.019282    17App    2.212414  
      41Ap     2.242526    42Ap     2.330555    43Ap     2.397614  
      18App    2.398250    19App    2.415514    44Ap     2.504408  
      20App    2.557026    45Ap     2.569869    46Ap     2.626180  
      21App    2.626894    47Ap     2.746267    22App    2.754274  
      48Ap     2.810287    49Ap     2.875192    23App    2.882915  
      50Ap     2.990258    24App    2.992579    51Ap     3.006745  
      52Ap     3.067618    25App    3.082673    26App    3.142032  
      53Ap     3.148067    54Ap     3.201691    55Ap     3.293950  
      56Ap     3.365633    27App    3.496762    57Ap     3.597242  
      58Ap     3.626886    59Ap     3.648224    28App    3.655993  
      29App    3.807471    60Ap     3.809375    30App    3.902740  
      61Ap     3.948252    62Ap     4.053297    63Ap     4.146801  
      64Ap     4.174294    31App    4.194795    32App    4.250927  
      65Ap     4.347494    33App    4.387786    66Ap     4.423029  
      67Ap     4.430441    34App    4.593812    68Ap     4.682066  
      69Ap     4.863964    70Ap     5.067702    35App    5.088150  
      71Ap     5.203780    72Ap     5.347420    36App    5.410528  
      73Ap     5.910238    37App    6.074660    74Ap     6.082083  
      75Ap     6.096877    38App    6.117886    76Ap     6.176927  
      39App    6.316445    77Ap     6.360695    40App    6.592288  
      78Ap     6.640106    41App    6.733020    79Ap     6.865656  
      42App    6.908539    80Ap     6.929095    81Ap     7.109587  
      82Ap     7.190408    43App    7.247394    83Ap     7.265455  
      44App    7.319858    84Ap     7.337551    45App    7.635158  
      85Ap     7.668076    86Ap     7.685330    46App    7.879847  
      87Ap     7.916812    47App    7.944355    88Ap     8.019601  
      48App    8.028899    89Ap     8.124399    49App    8.200137  
      90Ap     8.226691    91Ap     8.341222    92Ap     8.407561  
      50App    8.462386    93Ap     8.564135    51App    8.631339  
      52App    8.656813    94Ap     8.702142    95Ap     8.710124  
      96Ap     8.788373    53App    8.850575    97Ap     8.855836  
      54App    8.905054    98Ap     8.976153    99Ap     8.993128  
      55App    9.139188   100Ap     9.190591    56App    9.243446  
     101Ap     9.268554   102Ap     9.351924    57App    9.419000  
      58App    9.438197   103Ap     9.463161   104Ap     9.591827  
      59App    9.777505    60App    9.819834   105Ap     9.902997  
     106Ap     9.968055    61App    9.980413   107Ap    10.046245  
     108Ap    10.272651    62App   10.291692   109Ap    10.365105  
     110Ap    10.583846   111Ap    10.769690    63App   10.778665  
     112Ap    10.907726    64App   11.520475   113Ap    11.558307  
     114Ap    11.668616    65App   11.690149   115Ap    11.769922  
      66App   11.995276   116Ap    12.053292    67App   12.210783  
     117Ap    12.326324   118Ap    12.634951    68App   12.644349  
     119Ap    12.802280   120Ap    13.000334    69App   13.002845  
     121Ap    13.408397   122Ap    14.100355    70App   14.299314  
     123Ap    14.894044   124Ap    15.443763   125Ap    16.272763  
     126Ap    37.977371   127Ap    39.706297   128Ap    49.217128  
     129Ap   198.793594   130Ap   200.631053   131Ap   256.047335  

    Final Occupation by Irrep:
             Ap   App 
    DOCC [     9,    2 ]
    SOCC [     1,    0 ]
    NA   [    10,    2 ]
    NB   [     9,    2 ]

  @ROHF Final Energy:  -184.21059782708065

   => Energetics <=

    Nuclear Repulsion Energy =             65.6863765022366408
    One-Electron Energy =                -380.5383200205979506
    Two-Electron Energy =                 130.6413456912806623
    Total Energy =                       -184.2105978270806190

Computation Completed


Properties will be evaluated at   0.000000,   0.000000,   0.000000 [a0]

Properties computed using the SCF density matrix


 Multipole Moments:

 ------------------------------------------------------------------------------------
     Multipole            Electronic (a.u.)      Nuclear  (a.u.)        Total (a.u.)
 ------------------------------------------------------------------------------------

 L = 1.  Multiply by 2.5417464519 to convert [e a0] to [Debye]
 Dipole X            :          0.4251057           -0.2978588            0.1272469
 Dipole Y            :          2.5030938           -1.8558223            0.6472715
 Dipole Z            :          0.0000000            0.0000000            0.0000000
 Magnitude           :                                                    0.6596606

 ------------------------------------------------------------------------------------

*** tstop() called on nh002 at Fri Jun  6 00:13:17 2025
Module time:
	user time   =     180.98 seconds =       3.02 minutes
	system time =       2.90 seconds =       0.05 minutes
	total time  =         44 seconds =       0.73 minutes
Total time:
	user time   =     180.98 seconds =       3.02 minutes
	system time =       2.90 seconds =       0.05 minutes
	total time  =         44 seconds =       0.73 minutes
 MINTS: Wrapper to libmints.
   by Justin Turney

   Calculation information:
      Number of threads:                40
      Number of atoms:                   4
      Number of AO shells:              61
      Number of SO shells:              61
      Number of primitives:            100
      Number of atomic orbitals:       251
      Number of basis functions:       201

      Number of irreps:                  2
      Integral cutoff                 1.00e-12
      Number of functions per irrep: [ 131   70 ]

 OEINTS: Overlap, kinetic, potential, dipole, and quadrupole integrals
         stored in file 35.

      Computing two-electron integrals...done
      Computed 95561421 non-zero two-electron integrals.
        Stored in file 33.


*** tstart() called on nh002
*** at Fri Jun  6 00:13:31 2025


	Wfn Parameters:
	--------------------
	Wavefunction         = CCSD
	Number of irreps     = 2
	Number of MOs        = 201
	Number of active MOs = 201
	AO-Basis             = NONE
	Semicanonical        = false
	Reference            = ROHF
	Print Level          = 1

	IRREP	# MOs	# FZDC	# DOCC	# SOCC	# VIRT	# FZVR
	-----	-----	------	------	------	------	------
	 Ap	   131	    0	    9	    1	    121	    0
	 App	   70	    0	    2	    0	    68	    0
	Transforming integrals...
	IWL integrals will be deleted.
	(OO|OO)...
	Presorting SO-basis two-electron integrals.
	Sorting File: SO Ints (nn|nn) nbuckets = 1
	Constructing frozen core operators
	Starting first half-transformation.
	Sorting half-transformed integrals.
	First half integral transformation complete.
	Starting second half-transformation.
	Two-electron integral transformation complete.
	(OO|OV)...
	Starting second half-transformation.
	Two-electron integral transformation complete.
	(OO|VV)...
	Starting second half-transformation.
	Two-electron integral transformation complete.
	(OV|OO)...
	Starting first half-transformation.
	Sorting half-transformed integrals.
	First half integral transformation complete.
	Starting second half-transformation.
	Two-electron integral transformation complete.
	(OV|OV)...
	Starting second half-transformation.
	Two-electron integral transformation complete.
	(OV|VV)...
	Starting second half-transformation.
	Two-electron integral transformation complete.
	(VV|OO)...
	Starting first half-transformation.
	Sorting half-transformed integrals.
	First half integral transformation complete.
	Starting second half-transformation.
	Two-electron integral transformation complete.
	(VV|OV)...
	Starting second half-transformation.
	Two-electron integral transformation complete.
	(VV|VV)...
	Starting second half-transformation.
	Two-electron integral transformation complete.
	Frozen core energy     =      0.00000000000000

	Size of irrep 0 of <ab|cd> integrals:    380.562 (MW) /   3044.497 (MB)
	Size of irrep 1 of <ab|cd> integrals:    275.294 (MW) /   2202.356 (MB)
	Total:                                   655.857 (MW) /   5246.852 (MB)

	Size of irrep 0 of <ia|bc> integrals:     26.453 (MW) /    211.623 (MB)
	Size of irrep 1 of <ia|bc> integrals:     15.331 (MW) /    122.648 (MB)
	Total:                                    41.784 (MW) /    334.271 (MB)

	Size of irrep 0 of tIjAb amplitudes:       2.029 (MW) /     16.231 (MB)
	Size of irrep 1 of tIjAb amplitudes:       0.664 (MW) /      5.309 (MB)
	Total:                                     2.693 (MW) /     21.540 (MB)

	Nuclear Rep. energy          =     65.68637650223664
	SCF energy                   =   -184.21059782708065
	One-electron energy          =   -380.53832003560080
	Two-electron (AA) energy     =     28.82347778859111
	Two-electron (BB) energy     =     25.83463983611220
	Two-electron (AB) energy     =     75.98322808158038
	Two-electron energy          =   -249.89697432931712
	Reference energy             =   -184.21059782708048

*** tstop() called on nh002 at Fri Jun  6 00:14:23 2025
Module time:
	user time   =     505.44 seconds =       8.42 minutes
	system time =      33.39 seconds =       0.56 minutes
	total time  =         52 seconds =       0.87 minutes
Total time:
	user time   =     700.01 seconds =      11.67 minutes
	system time =      37.41 seconds =       0.62 minutes
	total time  =        110 seconds =       1.83 minutes
            **************************
            *                        *
            *        CCENERGY        *
            *                        *
            **************************

    Nuclear Rep. energy (wfn)     =   65.686376502236641
    SCF energy          (wfn)     = -184.210597827080647
    Reference energy    (file100) = -184.210597827080477

    Input parameters:
    -----------------
    Wave function   =     CCSD
    Reference wfn   =     ROHF
    Brueckner       =     No
    Memory (Mbytes) =     100000.0
    Maxiter         =     50
    R_Convergence   =     1.0e-07
    E_Convergence   =     1.0e-08
    Restart         =     Yes
    DIIS            =     Yes
    AO Basis        =     NONE
    ABCD            =     NEW
    Cache Level     =     2
    Cache Type      =     LOW
    Print Level     =     1
    Num. of threads =     40
    # Amps to Print =     10
    Print MP2 Amps? =     No
    Analyze T2 Amps =     No
    Print Pair Ener =     No
    Local CC        =     No
    SCS-MP2         =     False
    SCSN-MP2        =     False
    SCS-CCSD        =     False

                Solving CC Amplitude Equations
                ------------------------------
  Iter             Energy              RMS        T1Diag      D1Diag    New D1Diag    D2Diag
  ----     ---------------------    ---------   ----------  ----------  ----------   --------
     0        -0.776242333979214    0.000e+00    0.000055    0.000251    0.000251    0.000000
     1        -0.720574932890316    1.554e-01    0.017159    0.046185    0.046185    0.000000
     2        -0.750005203774994    7.195e-02    0.015165    0.033322    0.042275    0.000000
     3        -0.756675513978645    3.576e-02    0.019238    0.042588    0.058624    0.000000
     4        -0.758078544648692    2.055e-02    0.023694    0.056487    0.079885    0.000000
     5        -0.758190821156280    1.223e-02    0.027278    0.070376    0.099527    0.000000
     6        -0.758657316649923    6.529e-03    0.029406    0.079027    0.111760    0.000000
     7        -0.758723733971759    2.899e-03    0.029920    0.081704    0.115548    0.000000
     8        -0.758790492469918    1.026e-03    0.030116    0.082619    0.116841    0.000000
     9        -0.758811968000858    4.585e-04    0.030094    0.082585    0.116793    0.000000
    10        -0.758792739874085    1.947e-04    0.030107    0.082653    0.116889    0.000000
    11        -0.758796252536734    9.004e-05    0.030096    0.082622    0.116845    0.000000
    12        -0.758796813439064    3.595e-05    0.030100    0.082630    0.116857    0.000000
    13        -0.758797522812151    1.999e-05    0.030097    0.082624    0.116847    0.000000
    14        -0.758798195517738    9.995e-06    0.030097    0.082622    0.116845    0.000000
    15        -0.758798134983817    4.118e-06    0.030097    0.082622    0.116845    0.000000
    16        -0.758798073763565    2.189e-06    0.030097    0.082621    0.116844    0.000000
    17        -0.758798046192930    8.665e-07    0.030097    0.082621    0.116844    0.000000
    18        -0.758798039524888    3.700e-07    0.030097    0.082621    0.116844    0.000000
    19        -0.758798033179595    1.673e-07    0.030097    0.082621    0.116844    0.000000
    20        -0.758798038195407    8.881e-08    0.030097    0.082621    0.116844    0.000000

    Iterations converged.


    Largest TIA Amplitudes:
              9   0        -0.1577332584
              8   0         0.0814292989
              6   0         0.0375550952
             10 122        -0.0319378929
              9   6        -0.0314956919
              9   2        -0.0285998359
              8   2         0.0242872191
             11 122        -0.0216574261
              5   0         0.0202878433
              8   6         0.0178717060

    Largest Tia Amplitudes:
              8 121         0.0447721731
             10 122        -0.0336308318
              8   0        -0.0243914352
             11 122        -0.0219320175
             11 123         0.0149647234
              7   9         0.0146106763
              5 121         0.0142969280
              6   0         0.0139594874
              8   3        -0.0133232425
              8   2        -0.0132891737

    Largest TIJAB Amplitudes:
     11   8 122   0         0.0335572640
     11   9 122   0        -0.0221959875
      9   8   3   0         0.0183451696
     10   6 122   0         0.0151540651
     11   7 122   9        -0.0142591048
     11   8 122   5         0.0133705516
      8   7   9   0        -0.0129827803
      8   7   8   0         0.0129362220
     11   8 123   0        -0.0128881554
      9   8  14   0         0.0121713884

    Largest Tijab Amplitudes:
     11   8 122   0         0.0305321155
     10   6 122   0         0.0169098993
     11   7 122   9        -0.0142788734
     11   8 122   5         0.0124203072
      8   7   8   0         0.0117918361
      8   7   9   0        -0.0115663502
     11   6 122 121         0.0115494336
     11   7 122   8         0.0110243284
     11   8 123   0        -0.0107574452
     10   8 122   0        -0.0106570915

    Largest TIjAb Amplitudes:
     11  11 122 122        -0.0682665287
      8   8   0   0        -0.0650945377
      9   8   0 121        -0.0557813206
     10  10 122 122        -0.0492238995
      8  11   0 122         0.0458002528
     11   8 122   0         0.0426299607
      6   6   0   0        -0.0335074959
     11  10 122 122         0.0276689849
     10  11 122 122         0.0275732498
      9   8   2 121        -0.0261374606

    SCF energy       (wfn)                    = -184.210597827080647
    Reference energy (file100)                = -184.210597827080477

    Opposite-spin CCSD correlation energy     =   -0.589395719365317
    Same-spin CCSD correlation energy         =   -0.166152003817092
    Singles CCSD correlation energy           =   -0.003250315012998
    CCSD correlation energy                   =   -0.758798038195407
      * CCSD total energy                     = -184.969395865275885


			**************************
			*                        *
			*         CCHBAR         *
			*                        *
			**************************


			**************************
			*        CCLAMBDA        *
			**************************


	Nuclear Rep. energy (wfn)     =   65.686376502236641
	Reference           (wfn)     =                    1
	SCF energy          (wfn)     = -184.210597827080647
	Reference energy    (CC_INFO) = -184.210597827080477
	CCSD energy         (CC_INFO) =   -0.758798038195407
	Total CCSD energy   (CC_INFO) = -184.969395865275885

	Input parameters:
	-----------------
	Maxiter           =     50
	Convergence       = 1.0e-07
	Restart           =     No
	Cache Level       =     2
	Model III         =     No
	DIIS              =     Yes
	AO Basis          =     No
	ABCD              =     NEW
	Local CC          =     No
	Parameters for left-handed eigenvectors:
	    Irr   Root  Ground-State?    EOM energy        R0
	  1   0     0        Yes       0.0000000000   1.0000000000
	Labels for eigenvector 1:
	LIA 0 -1, Lia 0 -1, LIJAB 0 -1, Lijab 0 -1, LIjAb 0 -1, 2LIjAb - LIjbA 0 -1
	Deleting old CC_LAMBDA data.
	Symmetry of left-hand state: Ap
	Symmetry of left-hand eigenvector: Ap

	          Solving Lambda Equations
	          ------------------------
	Iter     PseudoEnergy or Norm         RMS  
	----     ---------------------     --------
	   0        -0.755030479809942    0.000e+00
	   1        -0.723735632703005    5.598e-02
	   2        -0.721236595089219    1.347e-02
	   3        -0.720770891278635    9.251e-03
	   4        -0.720095755333824    4.056e-03
	   5        -0.720246746464794    1.925e-03
	   6        -0.720229803068636    8.336e-04
	   7        -0.720190242723843    4.746e-04
	   8        -0.720189333601802    2.751e-04
	   9        -0.720181777052787    1.571e-04
	  10        -0.720175933524049    7.733e-05
	  11        -0.720173893543846    4.423e-05
	  12        -0.720171466550507    2.388e-05
	  13        -0.720172335873426    1.232e-05
	  14        -0.720171896694188    5.563e-06
	  15        -0.720171985324485    2.798e-06
	  16        -0.720171965180747    1.136e-06
	  17        -0.720171946283170    5.902e-07
	  18        -0.720171939026003    2.959e-07
	  19        -0.720171933682958    1.796e-07
	  20        -0.720171929126791    9.877e-08

	Largest LIA Amplitudes:
	          9   0        -0.1421549301
	          8   0         0.0751174601
	          9   6        -0.0257040001
	          9   2        -0.0252461212
	          6   0         0.0245697281
	          8   2         0.0245213768
	          8   3         0.0180654542
	          8   6         0.0180351377
	          5   0         0.0167928329
	         10 122        -0.0158357814

	Largest Lia Amplitudes:
	          8 121         0.0637444461
	          8   0        -0.0469804324
	          5   0        -0.0206352505
	          5 121         0.0199528175
	         10 122        -0.0179512850
	          7   9         0.0161015037
	          7   0        -0.0148454817
	          8   2        -0.0140638323
	          7 121         0.0130321027
	          7   6        -0.0118821544

	Largest LIJAB Amplitudes:
	 11   8 122   0         0.0274393315
	  9   8   3   0         0.0190678203
	 11   9 122   0        -0.0189263111
	 11   7 122   9        -0.0134818116
	  8   7   9   0        -0.0125737733
	  8   7   8   0         0.0124842870
	 10   6 122   0         0.0122814745
	  9   8  14   0         0.0120317901
	 11   8 122   5         0.0118056058
	 11   8 123   0        -0.0111085319

	Largest Lijab Amplitudes:
	 11   8 122   0         0.0249134875
	 10   6 122   0         0.0157769893
	 11   7 122   9        -0.0134512571
	 11   6 122 121         0.0120571871
	 10   8 122   0        -0.0107090819
	 11   7 122   8         0.0105372863
	 11   8 122   5         0.0104670120
	  8   7   8   0         0.0104143503
	  8   7   9   0        -0.0101186063
	 11   6 122   0        -0.0100894945

	Largest LIjAb Amplitudes:
	 11  11 122 122        -0.0624800622
	  8   8   0   0        -0.0588859968
	  9   8   0 121        -0.0542432360
	 10  10 122 122        -0.0465502925
	  8  11   0 122         0.0389812908
	 11   8 122   0         0.0366228570
	  6   6   0   0        -0.0296103779
	 11  10 122 122         0.0281752066
	 10  11 122 122         0.0280501750
	  9   8   2 121        -0.0249592292

	Iterations converged.

	Overlap <L|e^T> =        0.76456114688

			**************************
			*                        *
			*        CCDENSITY       *
			*                        *
			**************************


	Input parameters:
	-----------------
	Wave function    =   CCSD
	Reference wfn    =  ROHF
	Dertype          = 0
	Tolerance        = 1.0e-14
	Cache Level      = 2
	AO Basis         = No
	OPDM Only        = Yes
	Relax OPDM       = No
	Compute Xi       = No
	Use Zeta         = No
	Xi connected     = Yes
	Compute NO       = No

	Nuclear Rep. energy (wfn)     =   65.686376502236641
	SCF energy          (wfn)     = -184.210597827080647
	Reference energy    (file100) = -184.210597827080477
	CCSD energy         (CC_INFO) =   -0.758798038195407
	Total CCSD energy   (CC_INFO) = -184.969395865275885
	Number of States = 1

	Ground?  State     EOM Energy       R0
	  Yes     0 Ap    0.0000000000   1.00000000


Properties will be evaluated at   0.000000,   0.000000,   0.000000 [a0]

Properties computed using the CCSD density matrix

  Natural Orbital Occupations:

  Alpha Occupations:
  HONO-2 :    9 Ap    0.976
  HONO-1 :   10 Ap    0.965
  HONO-0 :    2App    0.964
  LUNO+0 :   11 Ap    0.043
  LUNO+1 :    3App    0.036
  LUNO+2 :   12 Ap    0.020
  LUNO+3 :   13 Ap    0.010

  Beta Occupations:
  HONO-2 :    8 Ap    0.975
  HONO-1 :    2App    0.964
  HONO-0 :    9 Ap    0.962
  LUNO+0 :    3App    0.035
  LUNO+1 :   10 Ap    0.032
  LUNO+2 :   11 Ap    0.018
  LUNO+3 :   12 Ap    0.014

  Total Occupations:
  HONO-2 :    8 Ap    1.952
  HONO-1 :    2App    1.928
  HONO-0 :    9 Ap    1.922
  LUNO+0 :   10 Ap    0.993
  LUNO+1 :   11 Ap    0.079
  LUNO+2 :    3App    0.071
  LUNO+3 :   12 Ap    0.039


    Psi4 stopped on: Friday, 06 June 2025 12:24AM
    Psi4 wall time for execution: 0:11:33.82

*** Psi4 exiting successfully. Buy a developer a beer!
