
    -----------------------------------------------------------------------
          Psi4: An Open-Source Ab Initio Electronic Structure Package
                               Psi4 1.9.1 release

                         Git: Rev {} zzzzzzz 


    D. G. A. Smith, L. A. Burns, A. C. Simmonett, R. M. Parrish,
    M. C. Schieber, R. Galvelis, P. Kraus, H. Kruse, R. Di Remigio,
    A. Alenaizan, A. M. James, S. Lehtola, J. P. Misiewicz, M. Scheurer,
    R. A. Shaw, J. B. Schriber, Y. Xie, Z. L. Glick, D. A. Sirianni,
    J. S. O'Brien, J. M. Waldrop, A. Kumar, E. G. Hohenstein,
    B. P. Pritchard, B. R. Brooks, H. F. Schaefer III, A. Yu. Sokolov,
    K. Patkowski, A. E. DePrince III, U. Bozkaya, R. A. King,
    F. A. Evangelista, J. M. Turney, T. D. Crawford, C. D. Sherrill,
    J. Chem. Phys. 152(18) 184108 (2020). https://doi.org/10.1063/5.0006002

                            Additional Code Authors
    E. T. Seidl, C. L. Janssen, E. F. Valeev, M. L. Leininger,
    J. F. Gonthier, R. M. Richard, H. R. McAlexander, M. Saitow, X. Wang,
    P. Verma, M. H. Lechner, A. Jiang, S. Behnle, A. G. Heide,
    M. F. Herbst, and D. L. Poole

             Previous Authors, Complete List of Code Contributors,
                       and Citations for Specific Modules
    https://github.com/psi4/psi4/blob/master/codemeta.json
    https://github.com/psi4/psi4/graphs/contributors
    http://psicode.org/psi4manual/master/introduction.html#citing-psifour

    -----------------------------------------------------------------------


    Psi4 started on: Friday, 06 June 2025 12:12AM

    Process ID: 508974
    Host:       nh001
    PSIDATADIR: /software-nas/eb2024/easybuild/software/rocky/8.9/intel/cascadelake/software/PSI4/1.9.1-foss-2023b/share/psi4
    Memory:     500.0 MiB
    Threads:    40
    
  ==> Input File <==

--------------------------------------------------------------------------
memory 100Gb

molecule{
0 1
N     0.00000000  0.00000000  0.54855572
N     0.00000000  0.00000000  -0.54855572
}

set reference rhf

properties("CCSD/def2-QZVP", properties=["NO_OCCUPATIONS"])
--------------------------------------------------------------------------

  Memory set to  93.132 GiB by Python driver.
   => Libint2 <=

    Primary   basis highest AM E, G, H:  5, 4, 3
    Auxiliary basis highest AM E, G, H:  6, 5, 4
    Onebody   basis highest AM E, G, H:  6, 5, 4
    Solid Harmonics ordering:            Gaussian

*** tstart() called on nh001
*** at Fri Jun  6 00:12:32 2025

   => Loading Basis Set <=

    Name: DEF2-QZVP
    Role: ORBITAL
    Keyword: BASIS
    atoms 1-2 entry N          line   242 file /software-nas/eb2024/easybuild/software/rocky/8.9/intel/cascadelake/software/PSI4/1.9.1-foss-2023b/share/psi4/basis/def2-qzvp.gbs 


         ---------------------------------------------------------
                                   SCF
               by Justin Turney, Rob Parrish, Andy Simmonett
                          and Daniel G. A. Smith
                              RHF Reference
                       40 Threads,  95367 MiB Core
         ---------------------------------------------------------

  ==> Geometry <==

    Molecular point group: d2h
    Full point group: D_inf_h

    Geometry (in Angstrom), charge = 0, multiplicity = 1:

       Center              X                  Y                   Z               Mass       
    ------------   -----------------  -----------------  -----------------  -----------------
         N            0.000000000000     0.000000000000     0.548555720000    14.003074004430
         N            0.000000000000     0.000000000000    -0.548555720000    14.003074004430

  Running in d2h symmetry.

  Rotational constants: A = ************  B =      2.00033  C =      2.00033 [cm^-1]
  Rotational constants: A = ************  B =  59968.38095  C =  59968.38095 [MHz]
  Nuclear repulsion =   23.634502729121120

  Charge       = 0
  Multiplicity = 1
  Electrons    = 14
  Nalpha       = 7
  Nbeta        = 7

  ==> Algorithm <==

  SCF Algorithm Type is PK.
  DIIS enabled.
  MOM disabled.
  Fractional occupation disabled.
  Guess Type is SAD.
  Energy threshold   = 1.00e-10
  Density threshold  = 1.00e-10
  Integral threshold = 1.00e-12

  ==> Primary Basis <==

  Basis Set: DEF2-QZVP
    Blend: DEF2-QZVP
    Number of shells: 34
    Number of basis functions: 114
    Number of Cartesian functions: 144
    Spherical Harmonics?: true
    Max angular momentum: 4

  ==> Integral Setup <==

  Using in-core PK algorithm.
   Calculation information:
      Number of atoms:                   2
      Number of AO shells:              34
      Number of primitives:             58
      Number of atomic orbitals:       144
      Number of basis functions:       114

      Integral cutoff                 1.00e-12
      Number of threads:                40

  Performing in-core PK
  Using 42974580 doubles for integral storage.
  We computed 711246 shell quartets total.
  Whereas there are 177310 unique shell quartets.
   301.13 percent of shell quartets recomputed by reordering.

  ==> DiskJK: Disk-Based J/K Matrices <==

    J tasked:                  Yes
    K tasked:                  Yes
    wK tasked:                  No
    Memory [MiB]:            71525
    Schwarz Cutoff:          1E-12

    OpenMP threads:             40

  Minimum eigenvalue in the overlap matrix is 2.3479794516E-04.
  Reciprocal condition number of the overlap matrix is 4.3161386611E-05.
    Using symmetric orthogonalization.

  ==> Pre-Iterations <==

  SCF Guess: Superposition of Atomic Densities via on-the-fly atomic UHF (no occupation information).

   -------------------------
    Irrep   Nso     Nmo    
   -------------------------
     Ag        24      24 
     B1g        7       7 
     B2g       13      13 
     B3g       13      13 
     Au         7       7 
     B1u       24      24 
     B2u       13      13 
     B3u       13      13 
   -------------------------
    Total     114     114
   -------------------------

  ==> Iterations <==

                        Total Energy        Delta E     RMS |[F,P]|

   @RHF iter SAD:  -108.07131963308925   -1.08071e+02   0.00000e+00 
   @RHF iter   1:  -108.98579639817501   -9.14477e-01   2.79667e-03 ADIIS/DIIS
   @RHF iter   2:  -108.99217638876854   -6.37999e-03   4.96529e-04 ADIIS/DIIS
   @RHF iter   3:  -108.99242151751179   -2.45129e-04   1.00872e-04 ADIIS/DIIS
   @RHF iter   4:  -108.99243612077534   -1.46033e-05   2.30542e-05 DIIS
   @RHF iter   5:  -108.99243684910827   -7.28333e-07   5.17309e-06 DIIS
   @RHF iter   6:  -108.99243690277532   -5.36671e-08   6.94407e-07 DIIS
   @RHF iter   7:  -108.99243690369194   -9.16614e-10   5.25862e-08 DIIS
   @RHF iter   8:  -108.99243690369661   -4.67537e-12   5.72638e-09 DIIS
   @RHF iter   9:  -108.99243690369660    1.42109e-14   5.64609e-10 DIIS
   @RHF iter  10:  -108.99243690369660    0.00000e+00   6.10371e-11 DIIS
  Energy and wave function converged.


  ==> Post-Iterations <==

    Orbital Energies [Eh]
    ---------------------

    Doubly Occupied:                                                      

       1Ag   -15.682196     1B1u  -15.678641     2Ag    -1.470834  
       2B1u   -0.778345     3Ag    -0.633944     1B3u   -0.613759  
       1B2u   -0.613759  

    Virtual:                                                              

       1B2g    0.145673     1B3g    0.145673     3B1u    0.218909  
       2B3u    0.278042     2B2u    0.278042     4Ag     0.314069  
       5Ag     0.400844     2B3g    0.418847     2B2g    0.418847  
       4B1u    0.620507     6Ag     0.777457     1B1g    0.777457  
       5B1u    0.856997     3B3u    1.043512     3B2u    1.043512  
       7Ag     1.109536     6B1u    1.143413     1Au     1.143413  
       4B3u    1.275466     4B2u    1.275466     3B2g    1.376406  
       3B3g    1.376406     7B1u    1.396289     4B2g    1.468024  
       4B3g    1.468024     8Ag     1.487549     8B1u    1.696776  
       9Ag     2.264492     5B3u    2.454131     5B2u    2.454131  
       2B1g    2.544539    10Ag     2.544539     6B2u    2.719656  
       6B3u    2.719656     5B2g    2.951618     5B3g    2.951618  
       3B1g    3.036431    11Ag     3.036431     9B1u    3.137142  
       2Au     3.137142    12Ag     3.152267     6B2g    3.189914  
       6B3g    3.189914    10B1u    3.407751    11B1u    3.469141  
       7B3u    3.608523     7B2u    3.608523    13Ag     3.611038  
      12B1u    3.704072     3Au     3.704072     7B2g    4.061453  
       7B3g    4.061453    13B1u    4.121707     8B3u    4.308339  
       8B2u    4.308339    14Ag     5.400791     8B2g    5.533112  
       8B3g    5.533112     9B2u    6.656121     9B3u    6.656121  
      15Ag     6.943664     4B1g    6.943664     5B1g    7.047773  
      16Ag     7.047773    14B1u    7.179858    15B1u    7.344374  
       4Au     7.344374    10B3u    7.496206    10B2u    7.496206  
      17Ag     7.583076     9B2g    8.132136     9B3g    8.132136  
      10B3g    8.194409    10B2g    8.194409    11B3u    8.713951  
      11B2u    8.713951    16B1u    8.769042     5Au     8.769042  
      11B3g    8.907786    11B2g    8.907786    18Ag     8.910284  
       6B1g    8.966677    19Ag     8.966677    17B1u    9.021603  
      12B3u    9.109508    12B2u    9.109508    20Ag     9.330110  
       7B1g    9.330110    18B1u    9.380697     6Au     9.380697  
      12B2g   10.136533    12B3g   10.136533    21Ag    10.239252  
      19B1u   10.267576    20B1u   10.365622     7Au    10.365622  
      21B1u   10.485332    13B3u   10.495980    13B2u   10.495980  
      22Ag    11.887612    13B2g   13.100481    13B3g   13.100481  
      22B1u   15.417842    23Ag    37.443735    23B1u   39.292492  
      24Ag   198.194247    24B1u  200.250617  

    Final Occupation by Irrep:
             Ag   B1g   B2g   B3g    Au   B1u   B2u   B3u 
    DOCC [     3,    0,    0,    0,    0,    2,    1,    1 ]
    NA   [     3,    0,    0,    0,    0,    2,    1,    1 ]
    NB   [     3,    0,    0,    0,    0,    2,    1,    1 ]

  @RHF Final Energy:  -108.99243690369660

   => Energetics <=

    Nuclear Repulsion Energy =             23.6345027291211203
    One-Electron Energy =                -194.3109224080375270
    Two-Electron Energy =                  61.6839827752198033
    Total Energy =                       -108.9924369036965999

Computation Completed


Properties will be evaluated at   0.000000,   0.000000,   0.000000 [a0]

Properties computed using the SCF density matrix


 Multipole Moments:

 ------------------------------------------------------------------------------------
     Multipole            Electronic (a.u.)      Nuclear  (a.u.)        Total (a.u.)
 ------------------------------------------------------------------------------------

 L = 1.  Multiply by 2.5417464519 to convert [e a0] to [Debye]
 Dipole X            :          0.0000000            0.0000000            0.0000000
 Dipole Y            :          0.0000000            0.0000000            0.0000000
 Dipole Z            :          0.0000000            0.0000000            0.0000000
 Magnitude           :                                                    0.0000000

 ------------------------------------------------------------------------------------

*** tstop() called on nh001 at Fri Jun  6 00:12:36 2025
Module time:
	user time   =      36.13 seconds =       0.60 minutes
	system time =       0.96 seconds =       0.02 minutes
	total time  =          4 seconds =       0.07 minutes
Total time:
	user time   =      36.13 seconds =       0.60 minutes
	system time =       0.96 seconds =       0.02 minutes
	total time  =          4 seconds =       0.07 minutes
 MINTS: Wrapper to libmints.
   by Justin Turney

   Calculation information:
      Number of threads:                40
      Number of atoms:                   2
      Number of AO shells:              34
      Number of SO shells:              17
      Number of primitives:             58
      Number of atomic orbitals:       144
      Number of basis functions:       114

      Number of irreps:                  8
      Integral cutoff                 1.00e-12
      Number of functions per irrep: [  24    7   13   13    7   24   13   13 ]

 OEINTS: Overlap, kinetic, potential, dipole, and quadrupole integrals
         stored in file 35.

      Computing two-electron integrals...done
      Computed 2085324 non-zero two-electron integrals.
        Stored in file 33.


*** tstart() called on nh001
*** at Fri Jun  6 00:12:37 2025


	Wfn Parameters:
	--------------------
	Wavefunction         = CCSD
	Number of irreps     = 8
	Number of MOs        = 114
	Number of active MOs = 114
	AO-Basis             = NONE
	Semicanonical        = false
	Reference            = RHF
	Print Level          = 1

	IRREP	# MOs	# FZDC	# DOCC	# SOCC	# VIRT	# FZVR
	-----	-----	------	------	------	------	------
	 Ag	   24	    0	    3	    0	    21	    0
	 B1g	   7	    0	    0	    0	    7	    0
	 B2g	   13	    0	    0	    0	    13	    0
	 B3g	   13	    0	    0	    0	    13	    0
	 Au	   7	    0	    0	    0	    7	    0
	 B1u	   24	    0	    2	    0	    22	    0
	 B2u	   13	    0	    1	    0	    12	    0
	 B3u	   13	    0	    1	    0	    12	    0
	Transforming integrals...
	IWL integrals will be deleted.
	(OO|OO)...
	Presorting SO-basis two-electron integrals.
	Sorting File: SO Ints (nn|nn) nbuckets = 1
	Constructing frozen core operators
	Starting first half-transformation.
	Sorting half-transformed integrals.
	First half integral transformation complete.
	Starting second half-transformation.
	Two-electron integral transformation complete.
	(OO|OV)...
	Starting second half-transformation.
	Two-electron integral transformation complete.
	(OO|VV)...
	Starting second half-transformation.
	Two-electron integral transformation complete.
	(OV|OO)...
	Starting first half-transformation.
	Sorting half-transformed integrals.
	First half integral transformation complete.
	Starting second half-transformation.
	Two-electron integral transformation complete.
	(OV|OV)...
	Starting second half-transformation.
	Two-electron integral transformation complete.
	(OV|VV)...
	Starting second half-transformation.
	Two-electron integral transformation complete.
	(VV|OO)...
	Starting first half-transformation.
	Sorting half-transformed integrals.
	First half integral transformation complete.
	Starting second half-transformation.
	Two-electron integral transformation complete.
	(VV|OV)...
	Starting second half-transformation.
	Two-electron integral transformation complete.
	(VV|VV)...
	Starting second half-transformation.
	Two-electron integral transformation complete.
	Frozen core energy     =      0.00000000000000

	Size of irrep 0 of <ab|cd> integrals:      2.719 (MW) /     21.754 (MB)
	Size of irrep 1 of <ab|cd> integrals:      1.508 (MW) /     12.064 (MB)
	Size of irrep 2 of <ab|cd> integrals:      2.028 (MW) /     16.222 (MB)
	Size of irrep 3 of <ab|cd> integrals:      2.028 (MW) /     16.222 (MB)
	Size of irrep 4 of <ab|cd> integrals:      1.503 (MW) /     12.025 (MB)
	Size of irrep 5 of <ab|cd> integrals:      2.709 (MW) /     21.675 (MB)
	Size of irrep 6 of <ab|cd> integrals:      2.033 (MW) /     16.268 (MB)
	Size of irrep 7 of <ab|cd> integrals:      2.033 (MW) /     16.268 (MB)
	Total:                                    16.562 (MW) /    132.497 (MB)

	Size of irrep 0 of <ia|bc> integrals:      0.216 (MW) /      1.728 (MB)
	Size of irrep 1 of <ia|bc> integrals:      0.072 (MW) /      0.580 (MB)
	Size of irrep 2 of <ia|bc> integrals:      0.131 (MW) /      1.048 (MB)
	Size of irrep 3 of <ia|bc> integrals:      0.131 (MW) /      1.048 (MB)
	Size of irrep 4 of <ia|bc> integrals:      0.075 (MW) /      0.598 (MB)
	Size of irrep 5 of <ia|bc> integrals:      0.221 (MW) /      1.765 (MB)
	Size of irrep 6 of <ia|bc> integrals:      0.128 (MW) /      1.027 (MB)
	Size of irrep 7 of <ia|bc> integrals:      0.128 (MW) /      1.027 (MB)
	Total:                                     1.103 (MW) /      8.820 (MB)

	Size of irrep 0 of tijab amplitudes:       0.025 (MW) /      0.198 (MB)
	Size of irrep 1 of tijab amplitudes:       0.002 (MW) /      0.020 (MB)
	Size of irrep 2 of tijab amplitudes:       0.006 (MW) /      0.046 (MB)
	Size of irrep 3 of tijab amplitudes:       0.006 (MW) /      0.046 (MB)
	Size of irrep 4 of tijab amplitudes:       0.000 (MW) /      0.000 (MB)
	Size of irrep 5 of tijab amplitudes:       0.020 (MW) /      0.158 (MB)
	Size of irrep 6 of tijab amplitudes:       0.009 (MW) /      0.068 (MB)
	Size of irrep 7 of tijab amplitudes:       0.009 (MW) /      0.068 (MB)
	Total:                                     0.075 (MW) /      0.604 (MB)

	Nuclear Rep. energy          =     23.63450272912112
	SCF energy                   =   -108.99243690369660
	One-electron energy          =   -194.31092240702341
	Two-electron energy          =     61.68398277420571
	Reference energy             =   -108.99243690369659

*** tstop() called on nh001 at Fri Jun  6 00:12:39 2025
Module time:
	user time   =       1.10 seconds =       0.02 minutes
	system time =       0.42 seconds =       0.01 minutes
	total time  =          2 seconds =       0.03 minutes
Total time:
	user time   =      38.69 seconds =       0.64 minutes
	system time =       1.56 seconds =       0.03 minutes
	total time  =          7 seconds =       0.12 minutes
            **************************
            *                        *
            *        CCENERGY        *
            *                        *
            **************************

    Nuclear Rep. energy (wfn)     =   23.634502729121120
    SCF energy          (wfn)     = -108.992436903696600
    Reference energy    (file100) = -108.992436903696586

    Input parameters:
    -----------------
    Wave function   =     CCSD
    Reference wfn   =     RHF
    Brueckner       =     No
    Memory (Mbytes) =     100000.0
    Maxiter         =     50
    R_Convergence   =     1.0e-07
    E_Convergence   =     1.0e-08
    Restart         =     Yes
    DIIS            =     Yes
    AO Basis        =     NONE
    ABCD            =     NEW
    Cache Level     =     2
    Cache Type      =     LOW
    Print Level     =     1
    Num. of threads =     40
    # Amps to Print =     10
    Print MP2 Amps? =     No
    Analyze T2 Amps =     No
    Print Pair Ener =     No
    Local CC        =     No
    SCS-MP2         =     False
    SCSN-MP2        =     False
    SCS-CCSD        =     False

MP2 correlation energy -0.4461087816835237
                Solving CC Amplitude Equations
                ------------------------------
  Iter             Energy              RMS        T1Diag      D1Diag    New D1Diag    D2Diag
  ----     ---------------------    ---------   ----------  ----------  ----------   --------
     0        -0.446108781683524    0.000e+00    0.000000    0.000000    0.000000    0.165380
     1        -0.425049896568922    6.127e-02    0.010740    0.026306    0.026306    0.154551
     2        -0.438868917431831    2.482e-02    0.010018    0.024370    0.024370    0.164877
     3        -0.441565755278866    8.540e-03    0.011357    0.027568    0.027568    0.170176
     4        -0.441756258592620    2.110e-03    0.011412    0.027666    0.027666    0.171463
     5        -0.441835372597969    5.184e-04    0.011432    0.027719    0.027719    0.171809
     6        -0.441838338954062    1.116e-04    0.011425    0.027706    0.027706    0.171833
     7        -0.441841536276151    2.318e-05    0.011423    0.027705    0.027705    0.171841
     8        -0.441841345494772    4.524e-06    0.011423    0.027704    0.027704    0.171841
     9        -0.441841178099249    8.833e-07    0.011423    0.027704    0.027704    0.171841
    10        -0.441841208496202    2.435e-07    0.011423    0.027704    0.027704    0.171841
    11        -0.441841200419602    6.479e-08    0.011423    0.027704    0.027704    0.171841
    12        -0.441841204772234    2.006e-08    0.011423    0.027704    0.027704    0.171841

    Iterations converged.


    Largest TIA Amplitudes:
              5  85         0.0187050246
              6  97         0.0187050246
              5  83         0.0175347098
              6  95         0.0175347098
              4  63         0.0113027564
              2   1        -0.0086188592
              5  87         0.0069722206
              6  99         0.0069722206
              5  89         0.0058123905
              6 101         0.0058123905

    Largest TIjAb Amplitudes:
      5   5  41  41        -0.0799152230
      6   6  28  28        -0.0799152230
      5   6  41  28        -0.0503196835
      6   5  28  41        -0.0503196835
      5   5  41  42        -0.0453407876
      5   5  42  41        -0.0453407876
      6   6  28  29        -0.0453407876
      6   6  29  28        -0.0453407876
      4   4  28  28        -0.0370555902
      4   4  41  41        -0.0370555902

    SCF energy       (wfn)                    = -108.992436903696600
    Reference energy (file100)                = -108.992436903696586

    Opposite-spin MP2 correlation energy      =   -0.340371006559503
    Same-spin MP2 correlation energy          =   -0.105737775124020
    Singles MP2 correlation energy            =   -0.000000000000000
    MP2 correlation energy                    =   -0.446108781683524
      * MP2 total energy                      = -109.438545685380106

    Opposite-spin CCSD correlation energy     =   -0.353029389846731
    Same-spin CCSD correlation energy         =   -0.088811814925503
    Singles CCSD correlation energy           =    0.000000000000000
    CCSD correlation energy                   =   -0.441841204772234
      * CCSD total energy                     = -109.434278108468817


			**************************
			*                        *
			*         CCHBAR         *
			*                        *
			**************************


			**************************
			*        CCLAMBDA        *
			**************************


	Nuclear Rep. energy (wfn)     =   23.634502729121120
	Reference           (wfn)     =                    0
	SCF energy          (wfn)     = -108.992436903696600
	Reference energy    (CC_INFO) = -108.992436903696586
	CCSD energy         (CC_INFO) =   -0.441841204772234
	Total CCSD energy   (CC_INFO) = -109.434278108468817

	Input parameters:
	-----------------
	Maxiter           =     50
	Convergence       = 1.0e-07
	Restart           =     No
	Cache Level       =     2
	Model III         =     No
	DIIS              =     Yes
	AO Basis          =     No
	ABCD              =     NEW
	Local CC          =     No
	Parameters for left-handed eigenvectors:
	    Irr   Root  Ground-State?    EOM energy        R0
	  1   0     0        Yes       0.0000000000   1.0000000000
	Labels for eigenvector 1:
	LIA 0 -1, Lia 0 -1, LIJAB 0 -1, Lijab 0 -1, LIjAb 0 -1, 2LIjAb - LIjbA 0 -1
	Deleting old CC_LAMBDA data.
	Symmetry of left-hand state: Ag
	Symmetry of left-hand eigenvector: Ag

	          Solving Lambda Equations
	          ------------------------
	Iter     PseudoEnergy or Norm         RMS  
	----     ---------------------     --------
	   0        -0.442089489588952    0.000e+00
	   1        -0.428694602429141    1.842e-02
	   2        -0.427111610930363    3.769e-03
	   3        -0.426898721166156    1.192e-03
	   4        -0.426849064245846    2.692e-04
	   5        -0.426862872117376    8.841e-05
	   6        -0.426855214665680    2.850e-05
	   7        -0.426855505894713    7.903e-06
	   8        -0.426855324076765    2.259e-06
	   9        -0.426855349976811    5.117e-07
	  10        -0.426855352054572    1.091e-07
	  11        -0.426855353744741    2.699e-08

	Largest LIA Amplitudes:
	          5  85         0.0129958840
	          6  97         0.0129958840
	          5  83         0.0120479634
	          6  95         0.0120479634
	          2   1        -0.0094181862
	          4  63         0.0092717029
	          2   0        -0.0052843035
	          5  87         0.0050731654
	          6  99         0.0050731654
	          4  62        -0.0041341049

	Largest LIjAb Amplitudes:
	  5   5  41  41        -0.0766300848
	  6   6  28  28        -0.0766300848
	  5   6  41  28        -0.0470094039
	  6   5  28  41        -0.0470094039
	  5   5  41  42        -0.0434071785
	  5   5  42  41        -0.0434071785
	  6   6  28  29        -0.0434071785
	  6   6  29  28        -0.0434071785
	  4   4  28  28        -0.0348541499
	  4   4  41  41        -0.0348541499

	Iterations converged.

	Overlap <L|e^T> =        0.87983867601

			**************************
			*                        *
			*        CCDENSITY       *
			*                        *
			**************************


	Input parameters:
	-----------------
	Wave function    =   CCSD
	Reference wfn    =   RHF
	Dertype          = 0
	Tolerance        = 1.0e-14
	Cache Level      = 2
	AO Basis         = No
	OPDM Only        = Yes
	Relax OPDM       = No
	Compute Xi       = No
	Use Zeta         = No
	Xi connected     = Yes
	Compute NO       = No

	Nuclear Rep. energy (wfn)     =   23.634502729121120
	SCF energy          (wfn)     = -108.992436903696600
	Reference energy    (file100) = -108.992436903696586
	CCSD energy         (CC_INFO) =   -0.441841204772234
	Total CCSD energy   (CC_INFO) = -109.434278108468817
	Number of States = 1

	Ground?  State     EOM Energy       R0
	  Yes     0 Ag    0.0000000000   1.00000000


Properties will be evaluated at   0.000000,   0.000000,   0.000000 [a0]

Properties computed using the CCSD density matrix

  Natural Orbital Occupations:

  Total Occupations:
  HONO-2 :    2B1u    1.961
  HONO-1 :    1B3u    1.932
  HONO-0 :    1B2u    1.932
  LUNO+0 :    1B2g    0.061
  LUNO+1 :    1B3g    0.061
  LUNO+2 :    3B1u    0.020
  LUNO+3 :    4 Ag    0.013


    Psi4 stopped on: Friday, 06 June 2025 12:12AM
    Psi4 wall time for execution: 0:00:09.77

*** Psi4 exiting successfully. Buy a developer a beer!
