
    -----------------------------------------------------------------------
          Psi4: An Open-Source Ab Initio Electronic Structure Package
                               Psi4 1.9.1 release

                         Git: Rev {} zzzzzzz 


    D. G. A. Smith, L. A. Burns, A. C. Simmonett, R. M. Parrish,
    M. C. Schieber, R. Galvelis, P. Kraus, H. Kruse, R. Di Remigio,
    A. Alenaizan, A. M. James, S. Lehtola, J. P. Misiewicz, M. Scheurer,
    R. A. Shaw, J. B. Schriber, Y. Xie, Z. L. Glick, D. A. Sirianni,
    J. S. O'Brien, J. M. Waldrop, A. Kumar, E. G. Hohenstein,
    B. P. Pritchard, B. R. Brooks, H. F. Schaefer III, A. Yu. Sokolov,
    K. Patkowski, A. E. DePrince III, U. Bozkaya, R. A. King,
    F. A. Evangelista, J. M. Turney, T. D. Crawford, C. D. Sherrill,
    J. Chem. Phys. 152(18) 184108 (2020). https://doi.org/10.1063/5.0006002

                            Additional Code Authors
    E. T. Seidl, C. L. Janssen, E. F. Valeev, M. L. Leininger,
    J. F. Gonthier, R. M. Richard, H. R. McAlexander, M. Saitow, X. Wang,
    P. Verma, M. H. Lechner, A. Jiang, S. Behnle, A. G. Heide,
    M. F. Herbst, and D. L. Poole

             Previous Authors, Complete List of Code Contributors,
                       and Citations for Specific Modules
    https://github.com/psi4/psi4/blob/master/codemeta.json
    https://github.com/psi4/psi4/graphs/contributors
    http://psicode.org/psi4manual/master/introduction.html#citing-psifour

    -----------------------------------------------------------------------


    Psi4 started on: Friday, 06 June 2025 12:12AM

    Process ID: 2615403
    Host:       nh041
    PSIDATADIR: /software-nas/eb2024/easybuild/software/rocky/8.9/intel/cascadelake/software/PSI4/1.9.1-foss-2023b/share/psi4
    Memory:     500.0 MiB
    Threads:    40
    
  ==> Input File <==

--------------------------------------------------------------------------
memory 100Gb

molecule{
0 1
Si     0.00000000  0.00000000  0.00000000
F     0.91020186  -0.91020186  0.91020186
F     -0.91020186  0.91020186  0.91020186
F     -0.91020186  -0.91020186  -0.91020186
F     0.91020186  0.91020186  -0.91020186
}

set reference rhf

properties("CCSD/def2-QZVP", properties=["NO_OCCUPATIONS"])
--------------------------------------------------------------------------

  Memory set to  93.132 GiB by Python driver.
   => Libint2 <=

    Primary   basis highest AM E, G, H:  5, 4, 3
    Auxiliary basis highest AM E, G, H:  6, 5, 4
    Onebody   basis highest AM E, G, H:  6, 5, 4
    Solid Harmonics ordering:            Gaussian

*** tstart() called on nh041
*** at Fri Jun  6 00:12:33 2025

   => Loading Basis Set <=

    Name: DEF2-QZVP
    Role: ORBITAL
    Keyword: BASIS
    atoms 1   entry SI         line   614 file /software-nas/eb2024/easybuild/software/rocky/8.9/intel/cascadelake/software/PSI4/1.9.1-foss-2023b/share/psi4/basis/def2-qzvp.gbs 
    atoms 2-5 entry F          line   338 file /software-nas/eb2024/easybuild/software/rocky/8.9/intel/cascadelake/software/PSI4/1.9.1-foss-2023b/share/psi4/basis/def2-qzvp.gbs 


         ---------------------------------------------------------
                                   SCF
               by Justin Turney, Rob Parrish, Andy Simmonett
                          and Daniel G. A. Smith
                              RHF Reference
                       40 Threads,  95367 MiB Core
         ---------------------------------------------------------

  ==> Geometry <==

    Molecular point group: c2v
    Full point group: Td

    Geometry (in Angstrom), charge = 0, multiplicity = 1:

       Center              X                  Y                   Z               Mass       
    ------------   -----------------  -----------------  -----------------  -----------------
         SI          -0.000000000000    -0.000000000000    -0.000000000000    27.976926534650
         F            1.287219814909     0.000000000000     0.910201860000    18.998403162730
         F           -1.287219814909    -0.000000000000     0.910201860000    18.998403162730
         F            0.000000000000    -1.287219814909    -0.910201860000    18.998403162730
         F           -0.000000000000     1.287219814909    -0.910201860000    18.998403162730

  Running in c2v symmetry.

  Rotational constants: A =      0.13388  B =      0.13388  C =      0.13388 [cm^-1]
  Rotational constants: A =   4013.60543  B =   4013.60543  C =   4013.60543 [MHz]
  Nuclear repulsion =  269.071401265344662

  Charge       = 0
  Multiplicity = 1
  Electrons    = 50
  Nalpha       = 25
  Nbeta        = 25

  ==> Algorithm <==

  SCF Algorithm Type is PK.
  DIIS enabled.
  MOM disabled.
  Fractional occupation disabled.
  Guess Type is SAD.
  Energy threshold   = 1.00e-10
  Density threshold  = 1.00e-10
  Integral threshold = 1.00e-12

  ==> Primary Basis <==

  Basis Set: DEF2-QZVP
    Blend: DEF2-QZVP
    Number of shells: 90
    Number of basis functions: 298
    Number of Cartesian functions: 374
    Spherical Harmonics?: true
    Max angular momentum: 4

  ==> Integral Setup <==

  Using in-core PK algorithm.
   Calculation information:
      Number of atoms:                   5
      Number of AO shells:              90
      Number of primitives:            157
      Number of atomic orbitals:       374
      Number of basis functions:       298

      Integral cutoff                 1.00e-12
      Number of threads:                40

  Performing in-core PK
  Using 1984836152 doubles for integral storage.
  We computed 11504999 shell quartets total.
  Whereas there are 8386560 unique shell quartets.
    37.18 percent of shell quartets recomputed by reordering.

  ==> DiskJK: Disk-Based J/K Matrices <==

    J tasked:                  Yes
    K tasked:                  Yes
    wK tasked:                  No
    Memory [MiB]:            71525
    Schwarz Cutoff:          1E-12

    OpenMP threads:             40

  Minimum eigenvalue in the overlap matrix is 2.5228346841E-04.
  Reciprocal condition number of the overlap matrix is 4.1377503057E-05.
    Using symmetric orthogonalization.

  ==> Pre-Iterations <==

  SCF Guess: Superposition of Atomic Densities via on-the-fly atomic UHF (no occupation information).

   -------------------------
    Irrep   Nso     Nmo    
   -------------------------
     A1       104     104 
     A2        48      48 
     B1        73      73 
     B2        73      73 
   -------------------------
    Total     298     298
   -------------------------

  ==> Iterations <==

                        Total Energy        Delta E     RMS |[F,P]|

   @RHF iter SAD:  -686.00361499773351   -6.86004e+02   0.00000e+00 
   @RHF iter   1:  -687.10720287083529   -1.10359e+00   3.78368e-03 DIIS/ADIIS
   @RHF iter   2:  -687.17319826868402   -6.59954e-02   2.43357e-03 DIIS/ADIIS
   @RHF iter   3:  -687.20731848991215   -3.41202e-02   1.41126e-04 DIIS/ADIIS
   @RHF iter   4:  -687.20753697981331   -2.18490e-04   3.14587e-05 DIIS
   @RHF iter   5:  -687.20754968405811   -1.27042e-05   6.84262e-06 DIIS
   @RHF iter   6:  -687.20755068336052   -9.99302e-07   1.46487e-06 DIIS
   @RHF iter   7:  -687.20755073451562   -5.11551e-08   1.43129e-07 DIIS
   @RHF iter   8:  -687.20755073493842   -4.22801e-10   2.09387e-08 DIIS
   @RHF iter   9:  -687.20755073494604   -7.61702e-12   2.11446e-09 DIIS
   @RHF iter  10:  -687.20755073494718   -1.13687e-12   3.07773e-10 DIIS
   @RHF iter  11:  -687.20755073494718    0.00000e+00   3.62144e-11 DIIS
  Energy and wave function converged.


  ==> Post-Iterations <==

    Orbital Energies [Eh]
    ---------------------

    Doubly Occupied:                                                      

       1A1   -68.937431     1B2   -26.338157     2A1   -26.338157  
       1B1   -26.338157     3A1   -26.338138     4A1    -6.267166  
       2B1    -4.377016     2B2    -4.377016     5A1    -4.377016  
       6A1    -1.668421     3B2    -1.633349     3B1    -1.633349  
       7A1    -1.633349     8A1    -0.856979     9A1    -0.778942  
       4B2    -0.778942     4B1    -0.778942     1A2    -0.727749  
      10A1    -0.727749     5B2    -0.711516     5B1    -0.711516  
      11A1    -0.711516     2A2    -0.679376     6B2    -0.679376  
       6B1    -0.679376  

    Virtual:                                                              

      12A1     0.116938     7B2     0.130956     7B1     0.130956  
      13A1     0.130956     8B1     0.314590     8B2     0.314590  
      14A1     0.314590    15A1     0.339715     9B2     0.339715  
       9B1     0.339715    16A1     0.355929     3A2     0.399263  
      17A1     0.399263    18A1     0.436639    19A1     0.506313  
      10B1     0.506313    10B2     0.506313     4A2     0.540951  
      11B2     0.540951    11B1     0.540951     5A2     0.591694  
      20A1     0.591694    12B2     0.625240    12B1     0.625240  
      21A1     0.625240    13B2     0.782172    22A1     0.782172  
      13B1     0.782172     6A2     0.826248    23A1     0.826248  
      24A1     0.889904    14B2     0.889904    14B1     0.889904  
      25A1     0.900682    15B2     0.956550    15B1     0.956550  
       7A2     0.956550    26A1     1.115018    27A1     1.244346  
      16B2     1.244346    16B1     1.244346    28A1     1.295959  
      17B2     1.295959    17B1     1.295959    29A1     1.361119  
      30A1     1.580292     8A2     1.580292     9A2     1.668056  
      18B2     1.668056    18B1     1.668056    10A2     1.813326  
      31A1     1.813326    32A1     1.829758    19B2     1.829758  
      19B1     1.829758    20B2     1.871294    20B1     1.871294  
      11A2     1.871294    33A1     1.941017    21B2     1.941017  
      21B1     1.941017    34A1     1.979268    22B2     1.979268  
      22B1     1.979268    23B1     2.044574    12A2     2.044574  
      23B2     2.044574    35A1     2.065543    13A2     2.065543  
      36A1     2.076579    37A1     2.090576    24B2     2.090576  
      24B1     2.090576    38A1     2.242306    25B2     2.242306  
      25B1     2.242306    39A1     2.374455    26B2     2.447811  
      26B1     2.447811    14A2     2.447811    27B2     2.540490  
      27B1     2.540490    40A1     2.540490    41A1     2.588346  
      15A2     2.588346    42A1     2.892120    28B2     2.892120  
      28B1     2.892120    16A2     2.975158    43A1     2.975158  
      44A1     3.079242    29B2     3.214332    29B1     3.214332  
      17A2     3.214332    45A1     3.246816    30B2     3.246816  
      30B1     3.246816    46A1     3.348718    47A1     3.859141  
      31B2     3.859141    31B1     3.859141    48A1     4.159948  
      18A2     4.478015    32B1     4.486779    32B2     4.486779  
      19A2     4.486779    49A1     4.514199    33B2     4.514199  
      33B1     4.514199    50A1     4.682293    20A2     4.684937  
      51A1     4.684937    34B2     4.720681    34B1     4.720681  
      52A1     4.720681    53A1     4.770951    35B2     4.770951  
      35B1     4.770951    36B2     4.817065    36B1     4.817065  
      21A2     4.817065    54A1     4.905090    55A1     5.050476  
      37B1     5.050476    37B2     5.050476    22A2     5.172845  
      56A1     5.172845    57A1     5.347458    38B1     5.347458  
      38B2     5.347458    23A2     5.467189    39B2     5.467189  
      39B1     5.467189    40B2     5.547701    24A2     5.547701  
      40B1     5.547701    58A1     5.714986    41B1     5.714986  
      41B2     5.714986    25A2     5.715316    59A1     5.715316  
      60A1     5.967982    61A1     5.985956    26A2     5.985956  
      42B2     6.065475    62A1     6.065475    42B1     6.065475  
      43B1     6.180031    43B2     6.180031    63A1     6.180031  
      44B2     6.253387    44B1     6.253387    27A2     6.253387  
      64A1     6.497052    28A2     6.497052    45B1     6.824131  
      45B2     6.824131    29A2     6.824131    46B2     7.037997  
      46B1     7.037997    65A1     7.037997    30A2     7.142519  
      66A1     7.142519    67A1     7.430258    68A1     7.574710  
      47B2     7.574710    47B1     7.574710    48B1     7.712476  
      48B2     7.712476    69A1     7.712476    70A1     8.060953  
      71A1    11.757687    49B1    11.757687    49B2    11.757687  
      50B2    11.891176    50B1    11.891176    31A2    11.891176  
      32A2    11.896755    51B1    11.915788    51B2    11.915788  
      72A1    11.915788    73A1    11.919580    33A2    11.919580  
      34A2    11.919711    52B2    11.919711    52B1    11.919711  
      53B1    11.925836    53B2    11.925836    74A1    11.925836  
      75A1    11.956069    76A1    11.969017    54B1    11.969017  
      54B2    11.969017    55B1    11.970946    55B2    11.970946  
      35A2    11.970946    36A2    11.993157    77A1    11.993157  
      78A1    12.043620    37A2    12.043620    56B1    12.049706  
      56B2    12.049706    79A1    12.049706    57B2    12.123476  
      57B1    12.123476    38A2    12.123476    80A1    12.180792  
      58B1    13.278681    58B2    13.278681    81A1    13.278681  
      39A2    15.182593    59B1    15.187304    59B2    15.187304  
      40A2    15.187304    82A1    15.217217    60B2    15.217217  
      60B1    15.217217    83A1    15.267344    61B1    15.334973  
      61B2    15.334973    84A1    15.334973    41A2    15.336027  
      62B2    15.336027    62B1    15.336027    85A1    15.429314  
      42A2    15.461030    86A1    15.461030    87A1    15.578135  
      63B2    15.578135    63B1    15.578135    43A2    15.645721  
      88A1    15.645721    89A1    15.729106    64B2    15.729106  
      64B1    15.729106    44A2    15.866107    65B1    15.866107  
      65B2    15.866107    90A1    16.246379    66B2    16.470797  
      66B1    16.470797    91A1    16.470797    67B2    16.507176  
      67B1    16.507176    45A2    16.507176    46A2    16.551173  
      92A1    16.551173    93A1    16.641638    68B1    16.641638  
      68B2    16.641638    47A2    16.839763    69B2    16.839763  
      69B1    16.839763    94A1    17.004594    70B2    17.004594  
      70B1    17.004594    48A2    17.046449    95A1    17.046449  
      96A1    17.152721    97A1    17.275151    71B2    17.275151  
      71B1    17.275151    98A1    18.116222    99A1    55.473140  
     100A1    55.710297    72B2    55.710297    72B1    55.710297  
     101A1    59.817836   102A1   288.389705    73B2   288.607171  
     103A1   288.607171    73B1   288.607171   104A1   320.547084  

    Final Occupation by Irrep:
             A1    A2    B1    B2 
    DOCC [    11,    2,    6,    6 ]
    NA   [    11,    2,    6,    6 ]
    NB   [    11,    2,    6,    6 ]

  @RHF Final Energy:  -687.20755073494718

   => Energetics <=

    Nuclear Repulsion Energy =            269.0714012653446616
    One-Electron Energy =               -1494.4004993627788735
    Two-Electron Energy =                 538.1215473624871493
    Total Energy =                       -687.2075507349471764

Computation Completed


Properties will be evaluated at   0.000000,   0.000000,   0.000000 [a0]

Properties computed using the SCF density matrix


 Multipole Moments:

 ------------------------------------------------------------------------------------
     Multipole            Electronic (a.u.)      Nuclear  (a.u.)        Total (a.u.)
 ------------------------------------------------------------------------------------

 L = 1.  Multiply by 2.5417464519 to convert [e a0] to [Debye]
 Dipole X            :          0.0000000            0.0000000            0.0000000
 Dipole Y            :          0.0000000            0.0000000            0.0000000
 Dipole Z            :          0.0000000            0.0000000            0.0000000
 Magnitude           :                                                    0.0000000

 ------------------------------------------------------------------------------------

*** tstop() called on nh041 at Fri Jun  6 00:13:47 2025
Module time:
	user time   =     393.60 seconds =       6.56 minutes
	system time =       8.78 seconds =       0.15 minutes
	total time  =         74 seconds =       1.23 minutes
Total time:
	user time   =     393.60 seconds =       6.56 minutes
	system time =       8.78 seconds =       0.15 minutes
	total time  =         74 seconds =       1.23 minutes
 MINTS: Wrapper to libmints.
   by Justin Turney

   Calculation information:
      Number of threads:                40
      Number of atoms:                   5
      Number of AO shells:              90
      Number of SO shells:              56
      Number of primitives:            157
      Number of atomic orbitals:       374
      Number of basis functions:       298

      Number of irreps:                  4
      Integral cutoff                 1.00e-12
      Number of functions per irrep: [ 104   48   73   73 ]

 OEINTS: Overlap, kinetic, potential, dipole, and quadrupole integrals
         stored in file 35.

      Computing two-electron integrals...done
      Computed 195428244 non-zero two-electron integrals.
        Stored in file 33.


*** tstart() called on nh041
*** at Fri Jun  6 00:14:19 2025


	Wfn Parameters:
	--------------------
	Wavefunction         = CCSD
	Number of irreps     = 4
	Number of MOs        = 298
	Number of active MOs = 298
	AO-Basis             = NONE
	Semicanonical        = false
	Reference            = RHF
	Print Level          = 1

	IRREP	# MOs	# FZDC	# DOCC	# SOCC	# VIRT	# FZVR
	-----	-----	------	------	------	------	------
	 A1	   104	    0	    11	    0	    93	    0
	 A2	   48	    0	    2	    0	    46	    0
	 B1	   73	    0	    6	    0	    67	    0
	 B2	   73	    0	    6	    0	    67	    0
	Transforming integrals...
	IWL integrals will be deleted.
	(OO|OO)...
	Presorting SO-basis two-electron integrals.
	Sorting File: SO Ints (nn|nn) nbuckets = 1
	Constructing frozen core operators
	Starting first half-transformation.
	Sorting half-transformed integrals.
	First half integral transformation complete.
	Starting second half-transformation.
	Two-electron integral transformation complete.
	(OO|OV)...
	Starting second half-transformation.
	Two-electron integral transformation complete.
	(OO|VV)...
	Starting second half-transformation.
	Two-electron integral transformation complete.
	(OV|OO)...
	Starting first half-transformation.
	Sorting half-transformed integrals.
	First half integral transformation complete.
	Starting second half-transformation.
	Two-electron integral transformation complete.
	(OV|OV)...
	Starting second half-transformation.
	Two-electron integral transformation complete.
	(OV|VV)...
	Starting second half-transformation.
	Two-electron integral transformation complete.
	(VV|OO)...
	Starting first half-transformation.
	Sorting half-transformed integrals.
	First half integral transformation complete.
	Starting second half-transformation.
	Two-electron integral transformation complete.
	(VV|OV)...
	Starting second half-transformation.
	Two-electron integral transformation complete.
	(VV|VV)...
	Starting second half-transformation.
	Two-electron integral transformation complete.
	Frozen core energy     =      0.00000000000000

	Size of irrep 0 of <ab|cd> integrals:    389.786 (MW) /   3118.288 (MB)
	Size of irrep 1 of <ab|cd> integrals:    307.441 (MW) /   2459.529 (MB)
	Size of irrep 2 of <ab|cd> integrals:    346.928 (MW) /   2775.423 (MB)
	Size of irrep 3 of <ab|cd> integrals:    346.928 (MW) /   2775.423 (MB)
	Total:                                  1391.083 (MW) /  11128.664 (MB)

	Size of irrep 0 of <ia|bc> integrals:     37.887 (MW) /    303.095 (MB)
	Size of irrep 1 of <ia|bc> integrals:     26.231 (MW) /    209.847 (MB)
	Size of irrep 2 of <ia|bc> integrals:     31.757 (MW) /    254.059 (MB)
	Size of irrep 3 of <ia|bc> integrals:     31.757 (MW) /    254.059 (MB)
	Total:                                   127.632 (MW) /   1021.059 (MB)

	Size of irrep 0 of tijab amplitudes:       3.889 (MW) /     31.115 (MB)
	Size of irrep 1 of tijab amplitudes:       2.034 (MW) /     16.272 (MB)
	Size of irrep 2 of tijab amplitudes:       2.906 (MW) /     23.245 (MB)
	Size of irrep 3 of tijab amplitudes:       2.906 (MW) /     23.245 (MB)
	Total:                                    11.735 (MW) /     93.877 (MB)

	Nuclear Rep. energy          =    269.07140126534466
	SCF energy                   =   -687.20755073494718
	One-electron energy          =  -1494.40049937056665
	Two-electron energy          =    538.12154737027981
	Reference energy             =   -687.20755073494217

*** tstop() called on nh041 at Fri Jun  6 00:16:26 2025
Module time:
	user time   =     443.52 seconds =       7.39 minutes
	system time =      40.86 seconds =       0.68 minutes
	total time  =        127 seconds =       2.12 minutes
Total time:
	user time   =     867.11 seconds =      14.45 minutes
	system time =      51.99 seconds =       0.87 minutes
	total time  =        233 seconds =       3.88 minutes
            **************************
            *                        *
            *        CCENERGY        *
            *                        *
            **************************

    Nuclear Rep. energy (wfn)     =  269.071401265344662
    SCF energy          (wfn)     = -687.207550734947176
    Reference energy    (file100) = -687.207550734942174

    Input parameters:
    -----------------
    Wave function   =     CCSD
    Reference wfn   =     RHF
    Brueckner       =     No
    Memory (Mbytes) =     100000.0
    Maxiter         =     50
    R_Convergence   =     1.0e-07
    E_Convergence   =     1.0e-08
    Restart         =     Yes
    DIIS            =     Yes
    AO Basis        =     NONE
    ABCD            =     NEW
    Cache Level     =     2
    Cache Type      =     LOW
    Print Level     =     1
    Num. of threads =     40
    # Amps to Print =     10
    Print MP2 Amps? =     No
    Analyze T2 Amps =     No
    Print Pair Ener =     No
    Local CC        =     No
    SCS-MP2         =     False
    SCSN-MP2        =     False
    SCS-CCSD        =     False

MP2 correlation energy -1.5117840354521455
                Solving CC Amplitude Equations
                ------------------------------
  Iter             Energy              RMS        T1Diag      D1Diag    New D1Diag    D2Diag
  ----     ---------------------    ---------   ----------  ----------  ----------   --------
     0        -1.511784035452145    0.000e+00    0.000000    0.000000    0.000000    0.113169
     1        -1.480291535757229    7.434e-02    0.008302    0.024923    0.024923    0.108315
     2        -1.501722956031897    2.562e-02    0.007716    0.023046    0.023046    0.113557
     3        -1.507208869176819    9.165e-03    0.008956    0.027405    0.027405    0.115883
     4        -1.506381065295130    1.694e-03    0.009130    0.028037    0.028037    0.116232
     5        -1.506326295493116    6.314e-04    0.009195    0.028359    0.028359    0.116284
     6        -1.506355875828986    1.621e-04    0.009212    0.028446    0.028446    0.116287
     7        -1.506349739338870    5.406e-05    0.009214    0.028464    0.028464    0.116275
     8        -1.506347436295406    1.162e-05    0.009215    0.028468    0.028468    0.116273
     9        -1.506347885402755    3.784e-06    0.009215    0.028469    0.028469    0.116273
    10        -1.506347508150699    1.344e-06    0.009215    0.028469    0.028469    0.116273
    11        -1.506347518099417    4.114e-07    0.009215    0.028469    0.028469    0.116273
    12        -1.506347499605082    1.468e-07    0.009215    0.028469    0.028469    0.116273
    13        -1.506347499389898    3.679e-08    0.009215    0.028469    0.028469    0.116273
    14        -1.506347499176152    9.296e-09    0.009215    0.028469    0.028469    0.116273

    Iterations converged.


    Largest TIA Amplitudes:
              7   4         0.0207643679
              8   2         0.0158045747
             16 140         0.0158045747
             22 207         0.0158045747
             10   1        -0.0137286575
             17 139        -0.0137286575
             23 206        -0.0137286575
              9   5         0.0132529808
             11  93         0.0132529808
             10   2        -0.0119119382

    Largest TIjAb Amplitudes:
      7   7   4   4        -0.0140538414
      8   8   4   4        -0.0105655306
     16  16   4   4        -0.0105655306
     22  22   4   4        -0.0105655306
     10  10   4   4        -0.0085984845
     17  17   4   4        -0.0085984845
     23  23   4   4        -0.0085984845
     16  16 140 140        -0.0080589414
     22  22 207 207        -0.0080589414
     12  12  93  93        -0.0078328092

    SCF energy       (wfn)                    = -687.207550734947176
    Reference energy (file100)                = -687.207550734942174

    Opposite-spin MP2 correlation energy      =   -1.128325515848380
    Same-spin MP2 correlation energy          =   -0.383458519603766
    Singles MP2 correlation energy            =   -0.000000000000000
    MP2 correlation energy                    =   -1.511784035452145
      * MP2 total energy                      = -688.719334770394312

    Opposite-spin CCSD correlation energy     =   -1.157573050454757
    Same-spin CCSD correlation energy         =   -0.348774448721396
    Singles CCSD correlation energy           =    0.000000000000000
    CCSD correlation energy                   =   -1.506347499176152
      * CCSD total energy                     = -688.713898234118346


			**************************
			*                        *
			*         CCHBAR         *
			*                        *
			**************************


			**************************
			*        CCLAMBDA        *
			**************************


	Nuclear Rep. energy (wfn)     =  269.071401265344662
	Reference           (wfn)     =                    0
	SCF energy          (wfn)     = -687.207550734947176
	Reference energy    (CC_INFO) = -687.207550734942174
	CCSD energy         (CC_INFO) =   -1.506347499176152
	Total CCSD energy   (CC_INFO) = -688.713898234118346

	Input parameters:
	-----------------
	Maxiter           =     50
	Convergence       = 1.0e-07
	Restart           =     No
	Cache Level       =     2
	Model III         =     No
	DIIS              =     Yes
	AO Basis          =     No
	ABCD              =     NEW
	Local CC          =     No
	Parameters for left-handed eigenvectors:
	    Irr   Root  Ground-State?    EOM energy        R0
	  1   0     0        Yes       0.0000000000   1.0000000000
	Labels for eigenvector 1:
	LIA 0 -1, Lia 0 -1, LIJAB 0 -1, Lijab 0 -1, LIjAb 0 -1, 2LIjAb - LIjbA 0 -1
	Deleting old CC_LAMBDA data.
	Symmetry of left-hand state: A1
	Symmetry of left-hand eigenvector: A1

	          Solving Lambda Equations
	          ------------------------
	Iter     PseudoEnergy or Norm         RMS  
	----     ---------------------     --------
	   0        -1.506837256146672    0.000e+00
	   1        -1.486855165359660    3.179e-02
	   2        -1.483777404041560    5.885e-03
	   3        -1.483248475818209    3.787e-03
	   4        -1.483125929964039    7.933e-04
	   5        -1.483166979738446    2.380e-04
	   6        -1.483166642938167    5.441e-05
	   7        -1.483164749962668    1.616e-05
	   8        -1.483165273199264    4.160e-06
	   9        -1.483165349560674    1.311e-06
	  10        -1.483165306099883    3.816e-07
	  11        -1.483165309202592    1.423e-07
	  12        -1.483165303339159    4.190e-08

	Largest LIA Amplitudes:
	          7   4         0.0117459655
	          8   2         0.0090050934
	         16 140         0.0090050934
	         22 207         0.0090050934
	         10   1        -0.0087616197
	         17 139        -0.0087616197
	         23 206        -0.0087616197
	         10   2        -0.0074944569
	         17 140        -0.0074944569
	         23 207        -0.0074944569

	Largest LIjAb Amplitudes:
	  7   7   4   4        -0.0135078520
	  8   8   4   4        -0.0100838998
	 16  16   4   4        -0.0100838998
	 22  22   4   4        -0.0100838998
	 10  10   4   4        -0.0081287164
	 17  17   4   4        -0.0081287164
	 23  23   4   4        -0.0081287164
	 16  16 140 140        -0.0077064394
	 22  22 207 207        -0.0077064394
	 12  12  93  93        -0.0075590711

	Iterations converged.

	Overlap <L|e^T> =        0.77319147495

			**************************
			*                        *
			*        CCDENSITY       *
			*                        *
			**************************


	Input parameters:
	-----------------
	Wave function    =   CCSD
	Reference wfn    =   RHF
	Dertype          = 0
	Tolerance        = 1.0e-14
	Cache Level      = 2
	AO Basis         = No
	OPDM Only        = Yes
	Relax OPDM       = No
	Compute Xi       = No
	Use Zeta         = No
	Xi connected     = Yes
	Compute NO       = No

	Nuclear Rep. energy (wfn)     =  269.071401265344662
	SCF energy          (wfn)     = -687.207550734947176
	Reference energy    (file100) = -687.207550734942174
	CCSD energy         (CC_INFO) =   -1.506347499176152
	Total CCSD energy   (CC_INFO) = -688.713898234118346
	Number of States = 1

	Ground?  State     EOM Energy       R0
	  Yes     0 A1    0.0000000000   1.00000000


Properties will be evaluated at   0.000000,   0.000000,   0.000000 [a0]

Properties computed using the CCSD density matrix

  Natural Orbital Occupations:

  Total Occupations:
  HONO-2 :    6 B2    1.967
  HONO-1 :    6 B1    1.967
  HONO-0 :   11 A1    1.967
  LUNO+0 :   12 A1    0.033
  LUNO+1 :    7 B1    0.026
  LUNO+2 :    7 B2    0.026
  LUNO+3 :   13 A1    0.026


    Psi4 stopped on: Friday, 06 June 2025 12:22AM
    Psi4 wall time for execution: 0:09:46.09

*** Psi4 exiting successfully. Buy a developer a beer!
