
    -----------------------------------------------------------------------
          Psi4: An Open-Source Ab Initio Electronic Structure Package
                               Psi4 1.9.1 release

                         Git: Rev {} zzzzzzz 


    D. G. A. Smith, L. A. Burns, A. C. Simmonett, R. M. Parrish,
    M. C. Schieber, R. Galvelis, P. Kraus, H. Kruse, R. Di Remigio,
    A. Alenaizan, A. M. James, S. Lehtola, J. P. Misiewicz, M. Scheurer,
    R. A. Shaw, J. B. Schriber, Y. Xie, Z. L. Glick, D. A. Sirianni,
    J. S. O'Brien, J. M. Waldrop, A. Kumar, E. G. Hohenstein,
    B. P. Pritchard, B. R. Brooks, H. F. Schaefer III, A. Yu. Sokolov,
    K. Patkowski, A. E. DePrince III, U. Bozkaya, R. A. King,
    F. A. Evangelista, J. M. Turney, T. D. Crawford, C. D. Sherrill,
    J. Chem. Phys. 152(18) 184108 (2020). https://doi.org/10.1063/5.0006002

                            Additional Code Authors
    E. T. Seidl, C. L. Janssen, E. F. Valeev, M. L. Leininger,
    J. F. Gonthier, R. M. Richard, H. R. McAlexander, M. Saitow, X. Wang,
    P. Verma, M. H. Lechner, A. Jiang, S. Behnle, A. G. Heide,
    M. F. Herbst, and D. L. Poole

             Previous Authors, Complete List of Code Contributors,
                       and Citations for Specific Modules
    https://github.com/psi4/psi4/blob/master/codemeta.json
    https://github.com/psi4/psi4/graphs/contributors
    http://psicode.org/psi4manual/master/introduction.html#citing-psifour

    -----------------------------------------------------------------------


    Psi4 started on: Friday, 06 June 2025 12:12AM

    Process ID: 2579732
    Host:       nh039
    PSIDATADIR: /software-nas/eb2024/easybuild/software/rocky/8.9/intel/cascadelake/software/PSI4/1.9.1-foss-2023b/share/psi4
    Memory:     500.0 MiB
    Threads:    40
    
  ==> Input File <==

--------------------------------------------------------------------------
memory 100Gb

molecule{
0 1
C     0.00000000  0.00000000  0.00000000
F     0.76656406  -0.76656406  0.76656406
F     -0.76656406  0.76656406  0.76656406
F     -0.76656406  -0.76656406  -0.76656406
F     0.76656406  0.76656406  -0.76656406
}

set reference rhf

properties("CCSD/def2-QZVP", properties=["NO_OCCUPATIONS"])
--------------------------------------------------------------------------

  Memory set to  93.132 GiB by Python driver.
   => Libint2 <=

    Primary   basis highest AM E, G, H:  5, 4, 3
    Auxiliary basis highest AM E, G, H:  6, 5, 4
    Onebody   basis highest AM E, G, H:  6, 5, 4
    Solid Harmonics ordering:            Gaussian

*** tstart() called on nh039
*** at Fri Jun  6 00:12:33 2025

   => Loading Basis Set <=

    Name: DEF2-QZVP
    Role: ORBITAL
    Keyword: BASIS
    atoms 1   entry C          line   194 file /software-nas/eb2024/easybuild/software/rocky/8.9/intel/cascadelake/software/PSI4/1.9.1-foss-2023b/share/psi4/basis/def2-qzvp.gbs 
    atoms 2-5 entry F          line   338 file /software-nas/eb2024/easybuild/software/rocky/8.9/intel/cascadelake/software/PSI4/1.9.1-foss-2023b/share/psi4/basis/def2-qzvp.gbs 


         ---------------------------------------------------------
                                   SCF
               by Justin Turney, Rob Parrish, Andy Simmonett
                          and Daniel G. A. Smith
                              RHF Reference
                       40 Threads,  95367 MiB Core
         ---------------------------------------------------------

  ==> Geometry <==

    Molecular point group: c2v
    Full point group: Td

    Geometry (in Angstrom), charge = 0, multiplicity = 1:

       Center              X                  Y                   Z               Mass       
    ------------   -----------------  -----------------  -----------------  -----------------
         C           -0.000000000000    -0.000000000000    -0.000000000000    12.000000000000
         F            1.084085290080     0.000000000000     0.766564060000    18.998403162730
         F           -1.084085290080    -0.000000000000     0.766564060000    18.998403162730
         F            0.000000000000    -1.084085290080    -0.766564060000    18.998403162730
         F           -0.000000000000     1.084085290080    -0.766564060000    18.998403162730

  Running in c2v symmetry.

  Rotational constants: A =      0.18875  B =      0.18875  C =      0.18875 [cm^-1]
  Rotational constants: A =   5658.65486  B =   5658.65486  C =   5658.65486 [MHz]
  Nuclear repulsion =  204.704817045653385

  Charge       = 0
  Multiplicity = 1
  Electrons    = 42
  Nalpha       = 21
  Nbeta        = 21

  ==> Algorithm <==

  SCF Algorithm Type is PK.
  DIIS enabled.
  MOM disabled.
  Fractional occupation disabled.
  Guess Type is SAD.
  Energy threshold   = 1.00e-10
  Density threshold  = 1.00e-10
  Integral threshold = 1.00e-12

  ==> Primary Basis <==

  Basis Set: DEF2-QZVP
    Blend: DEF2-QZVP
    Number of shells: 85
    Number of basis functions: 285
    Number of Cartesian functions: 360
    Spherical Harmonics?: true
    Max angular momentum: 4

  ==> Integral Setup <==

  Using in-core PK algorithm.
   Calculation information:
      Number of atoms:                   5
      Number of AO shells:              85
      Number of primitives:            145
      Number of atomic orbitals:       360
      Number of basis functions:       285

      Integral cutoff                 1.00e-12
      Number of threads:                40

  Performing in-core PK
  Using 1661010780 doubles for integral storage.
  We computed 11208271 shell quartets total.
  Whereas there are 6681340 unique shell quartets.
    67.75 percent of shell quartets recomputed by reordering.

  ==> DiskJK: Disk-Based J/K Matrices <==

    J tasked:                  Yes
    K tasked:                  Yes
    wK tasked:                  No
    Memory [MiB]:            71525
    Schwarz Cutoff:          1E-12

    OpenMP threads:             40

  Minimum eigenvalue in the overlap matrix is 1.5231084505E-04.
  Reciprocal condition number of the overlap matrix is 2.3290217188E-05.
    Using symmetric orthogonalization.

  ==> Pre-Iterations <==

  SCF Guess: Superposition of Atomic Densities via on-the-fly atomic UHF (no occupation information).

   -------------------------
    Irrep   Nso     Nmo    
   -------------------------
     A1        98      98 
     A2        47      47 
     B1        70      70 
     B2        70      70 
   -------------------------
    Total     285     285
   -------------------------

  ==> Iterations <==

                        Total Energy        Delta E     RMS |[F,P]|

   @RHF iter SAD:  -435.23554864066591   -4.35236e+02   0.00000e+00 
   @RHF iter   1:  -435.71665261162326   -4.81104e-01   4.32857e-03 DIIS/ADIIS
   @RHF iter   2:  -435.80861941833700   -9.19668e-02   2.84115e-03 DIIS/ADIIS
   @RHF iter   3:  -435.85499042431928   -4.63710e-02   2.61840e-04 DIIS/ADIIS
   @RHF iter   4:  -435.85608493453748   -1.09451e-03   7.53659e-05 DIIS
   @RHF iter   5:  -435.85617050755934   -8.55730e-05   1.72954e-05 DIIS
   @RHF iter   6:  -435.85617591880214   -5.41124e-06   1.74356e-06 DIIS
   @RHF iter   7:  -435.85617596276518   -4.39630e-08   2.16717e-07 DIIS
   @RHF iter   8:  -435.85617596347373   -7.08553e-10   2.37741e-08 DIIS
   @RHF iter   9:  -435.85617596348118   -7.44649e-12   2.80521e-09 DIIS
   @RHF iter  10:  -435.85617596348135   -1.70530e-13   4.47048e-10 DIIS
   @RHF iter  11:  -435.85617596348061    7.38964e-13   5.05098e-11 DIIS
  Energy and wave function converged.


  ==> Post-Iterations <==

    Orbital Energies [Eh]
    ---------------------

    Doubly Occupied:                                                      

       1B1   -26.373658     1B2   -26.373658     1A1   -26.373658  
       2A1   -26.373613     3A1   -11.613060     4A1    -1.798286  
       5A1    -1.676650     2B1    -1.676650     2B2    -1.676650  
       6A1    -1.010038     7A1    -0.886124     3B2    -0.886124  
       3B1    -0.886124     1A2    -0.763408     8A1    -0.763408  
       9A1    -0.711690     4B2    -0.711690     4B1    -0.711690  
       5B1    -0.685885     5B2    -0.685885     2A2    -0.685885  

    Virtual:                                                              

      10A1     0.197378     6B1     0.211719     6B2     0.211719  
      11A1     0.211719    12A1     0.352078     7B2     0.352078  
       7B1     0.352078     3A2     0.434964    13A1     0.434964  
      14A1     0.438417    15A1     0.449122     8B2     0.449122  
       8B1     0.449122    16A1     0.551559     4A2     0.569356  
       9B2     0.569356     9B1     0.569356    10B2     0.673194  
      10B1     0.673194    17A1     0.673194    18A1     0.824062  
      11B2     0.824062    11B1     0.824062    19A1     0.905462  
      12B2     0.905462    12B1     0.905462     5A2     0.922253  
      20A1     0.922253    21A1     0.975113    22A1     1.246908  
      13B2     1.246908    13B1     1.246908    14B1     1.610237  
      14B2     1.610237     6A2     1.610237     7A2     1.659948  
      23A1     1.659948    24A1     1.760929     8A2     1.795012  
      25A1     1.795012    26A1     1.839974    15B2     1.839974  
      15B1     1.839974    16B2     1.937067    16B1     1.937067  
       9A2     1.937067    27A1     1.951729    17B1     1.951729  
      17B2     1.951729    28A1     2.029701    29A1     2.094399  
      18B1     2.094399    18B2     2.094399    10A2     2.114191  
      19B2     2.114191    19B1     2.114191    30A1     2.118444  
      11A2     2.118444    31A1     2.268443    20B2     2.268443  
      20B1     2.268443    32A1     2.331735    21B2     2.331735  
      21B1     2.331735    33A1     2.629251    22B2     2.809194  
      22B1     2.809194    12A2     2.809194    34A1     2.888096  
      35A1     2.925504    23B2     2.925504    23B1     2.925504  
      36A1     3.172984    13A2     3.172984    24B2     3.181004  
      24B1     3.181004    37A1     3.181004    25B2     3.749073  
      25B1     3.749073    38A1     3.749073    39A1     4.269055  
      14A2     4.269055    15A2     4.298518    26B2     4.298518  
      26B1     4.298518    40A1     4.465804    27B2     4.465804  
      27B1     4.465804    28B2     4.484324    28B1     4.484324  
      41A1     4.484324    29B1     4.493031    29B2     4.493031  
      16A2     4.493031    17A2     4.498958    42A1     4.583400  
      30B2     4.921970    30B1     4.921970    43A1     4.921970  
      44A1     4.985857    31B2     5.216058    31B1     5.216058  
      18A2     5.216058    45A1     5.319226    32B2     5.319226  
      32B1     5.319226    46A1     5.350762    19A2     5.350762  
      47A1     5.392388    48A1     5.502786    20A2     5.502786  
      33B2     5.630596    33B1     5.630596    21A2     5.630596  
      49A1     5.692940    34B2     5.692940    34B1     5.692940  
      50A1     5.956618    35B2     5.956618    35B1     5.956618  
      36B2     5.986405    36B1     5.986405    22A2     5.986405  
      23A2     6.001841    51A1     6.001841    52A1     6.146096  
      53A1     6.197971    37B2     6.197971    37B1     6.197971  
      54A1     6.330057    24A2     6.375530    38B2     6.375530  
      38B1     6.375530    55A1     6.379614    39B2     6.379614  
      39B1     6.379614    25A2     6.473573    56A1     6.473573  
      57A1     6.589524    58A1     6.784422    40B2     6.784422  
      40B1     6.784422    26A2     6.904401    41B2     6.904401  
      41B1     6.904401    42B2     6.936701    42B1     6.936701  
      59A1     6.936701    60A1     7.276829    27A2     7.276829  
      61A1     7.570970    43B2     7.570970    43B1     7.570970  
      44B2     7.634757    44B1     7.634757    62A1     7.634757  
      28A2     7.696124    63A1     7.696124    45B2     7.813850  
      45B1     7.813850    29A2     7.813850    64A1     8.192718  
      65A1     9.682292    46B2     9.774025    66A1     9.774025  
      46B1     9.774025    30A2    11.869130    47B1    11.888955  
      47B2    11.888955    67A1    11.888955    31A2    11.901592  
      48B2    11.901592    48B1    11.901592    32A2    11.903234  
      68A1    11.903234    49B1    11.903929    49B2    11.903929  
      33A2    11.903929    50B2    11.909088    50B1    11.909088  
      69A1    11.909088    70A1    12.011125    51B2    12.094286  
      51B1    12.094286    71A1    12.094286    34A2    12.154508  
      52B2    12.154508    52B1    12.154508    72A1    12.224914  
      35A2    12.224914    73A1    12.450979    53B2    12.450979  
      53B1    12.450979    54B2    12.784753    74A1    12.784753  
      54B1    12.784753    36A2    12.790392    75A1    12.790392  
      55B1    12.899861    55B2    12.899861    37A2    12.899861  
      76A1    13.195422    38A2    15.178277    56B2    15.185370  
      56B1    15.185370    39A2    15.185370    77A1    15.188963  
      57B2    15.188963    57B1    15.188963    78A1    15.264981  
      58B2    15.392691    58B1    15.392691    79A1    15.392691  
      59B2    15.427065    59B1    15.427065    40A2    15.427065  
      41A2    15.509806    80A1    15.509806    60B2    15.732469  
      60B1    15.732469    81A1    15.732469    82A1    16.080563  
      83A1    16.191684    42A2    16.191684    61B2    16.227066  
      61B1    16.227066    43A2    16.227066    62B2    16.235060  
      62B1    16.235060    84A1    16.235060    85A1    16.521402  
      44A2    16.521402    63B1    16.548874    63B2    16.548874  
      45A2    16.548874    86A1    16.718730    64B2    16.718730  
      64B1    16.718730    65B2    16.844244    65B1    16.844244  
      87A1    16.844244    66B1    16.945145    66B2    16.945145  
      46A2    16.945145    88A1    17.065610    47A2    17.065610  
      89A1    17.374906    90A1    17.405802    67B2    17.405802  
      67B1    17.405802    68B2    17.471364    68B1    17.471364  
      91A1    17.471364    92A1    17.528153    93A1    28.872458  
      69B2    55.783279    69B1    55.783279    94A1    55.783279  
      95A1    56.432595    96A1   149.166002    97A1   288.702034  
      70B2   288.702034    70B1   288.702034    98A1   289.514189  

    Final Occupation by Irrep:
             A1    A2    B1    B2 
    DOCC [     9,    2,    5,    5 ]
    NA   [     9,    2,    5,    5 ]
    NB   [     9,    2,    5,    5 ]

  @RHF Final Energy:  -435.85617596348061

   => Energetics <=

    Nuclear Repulsion Energy =            204.7048170456533853
    One-Electron Energy =               -1014.4743196079584777
    Two-Electron Energy =                 373.9133265988244830
    Total Energy =                       -435.8561759634806094

Computation Completed


Properties will be evaluated at   0.000000,   0.000000,   0.000000 [a0]

Properties computed using the SCF density matrix


 Multipole Moments:

 ------------------------------------------------------------------------------------
     Multipole            Electronic (a.u.)      Nuclear  (a.u.)        Total (a.u.)
 ------------------------------------------------------------------------------------

 L = 1.  Multiply by 2.5417464519 to convert [e a0] to [Debye]
 Dipole X            :          0.0000000            0.0000000            0.0000000
 Dipole Y            :          0.0000000            0.0000000            0.0000000
 Dipole Z            :         -0.0000000           -0.0000000           -0.0000000
 Magnitude           :                                                    0.0000000

 ------------------------------------------------------------------------------------

*** tstop() called on nh039 at Fri Jun  6 00:13:37 2025
Module time:
	user time   =     374.70 seconds =       6.25 minutes
	system time =       7.43 seconds =       0.12 minutes
	total time  =         64 seconds =       1.07 minutes
Total time:
	user time   =     374.70 seconds =       6.25 minutes
	system time =       7.43 seconds =       0.12 minutes
	total time  =         64 seconds =       1.07 minutes
 MINTS: Wrapper to libmints.
   by Justin Turney

   Calculation information:
      Number of threads:                40
      Number of atoms:                   5
      Number of AO shells:              85
      Number of SO shells:              51
      Number of primitives:            145
      Number of atomic orbitals:       360
      Number of basis functions:       285

      Number of irreps:                  4
      Integral cutoff                 1.00e-12
      Number of functions per irrep: [  98   47   70   70 ]

 OEINTS: Overlap, kinetic, potential, dipole, and quadrupole integrals
         stored in file 35.

      Computing two-electron integrals...done
      Computed 181822535 non-zero two-electron integrals.
        Stored in file 33.


*** tstart() called on nh039
*** at Fri Jun  6 00:14:03 2025


	Wfn Parameters:
	--------------------
	Wavefunction         = CCSD
	Number of irreps     = 4
	Number of MOs        = 285
	Number of active MOs = 285
	AO-Basis             = NONE
	Semicanonical        = false
	Reference            = RHF
	Print Level          = 1

	IRREP	# MOs	# FZDC	# DOCC	# SOCC	# VIRT	# FZVR
	-----	-----	------	------	------	------	------
	 A1	   98	    0	    9	    0	    89	    0
	 A2	   47	    0	    2	    0	    45	    0
	 B1	   70	    0	    5	    0	    65	    0
	 B2	   70	    0	    5	    0	    65	    0
	Transforming integrals...
	IWL integrals will be deleted.
	(OO|OO)...
	Presorting SO-basis two-electron integrals.
	Sorting File: SO Ints (nn|nn) nbuckets = 1
	Constructing frozen core operators
	Starting first half-transformation.
	Sorting half-transformed integrals.
	First half integral transformation complete.
	Starting second half-transformation.
	Two-electron integral transformation complete.
	(OO|OV)...
	Starting second half-transformation.
	Two-electron integral transformation complete.
	(OO|VV)...
	Starting second half-transformation.
	Two-electron integral transformation complete.
	(OV|OO)...
	Starting first half-transformation.
	Sorting half-transformed integrals.
	First half integral transformation complete.
	Starting second half-transformation.
	Two-electron integral transformation complete.
	(OV|OV)...
	Starting second half-transformation.
	Two-electron integral transformation complete.
	(OV|VV)...
	Starting second half-transformation.
	Two-electron integral transformation complete.
	(VV|OO)...
	Starting first half-transformation.
	Sorting half-transformed integrals.
	First half integral transformation complete.
	Starting second half-transformation.
	Two-electron integral transformation complete.
	(VV|OV)...
	Starting second half-transformation.
	Two-electron integral transformation complete.
	(VV|VV)...
	Starting second half-transformation.
	Two-electron integral transformation complete.
	Frozen core energy     =      0.00000000000000

	Size of irrep 0 of <ab|cd> integrals:    338.413 (MW) /   2707.303 (MB)
	Size of irrep 1 of <ab|cd> integrals:    270.932 (MW) /   2167.453 (MB)
	Size of irrep 2 of <ab|cd> integrals:    303.456 (MW) /   2427.651 (MB)
	Size of irrep 3 of <ab|cd> integrals:    303.456 (MW) /   2427.651 (MB)
	Total:                                  1216.257 (MW) /   9730.058 (MB)

	Size of irrep 0 of <ia|bc> integrals:     28.348 (MW) /    226.786 (MB)
	Size of irrep 1 of <ia|bc> integrals:     20.295 (MW) /    162.361 (MB)
	Size of irrep 2 of <ia|bc> integrals:     24.127 (MW) /    193.014 (MB)
	Size of irrep 3 of <ia|bc> integrals:     24.127 (MW) /    193.014 (MB)
	Total:                                    96.897 (MW) /    775.175 (MB)

	Size of irrep 0 of tijab amplitudes:       2.483 (MW) /     19.868 (MB)
	Size of irrep 1 of tijab amplitudes:       1.416 (MW) /     11.324 (MB)
	Size of irrep 2 of tijab amplitudes:       1.916 (MW) /     15.330 (MB)
	Size of irrep 3 of tijab amplitudes:       1.916 (MW) /     15.330 (MB)
	Total:                                     7.731 (MW) /     61.851 (MB)

	Nuclear Rep. energy          =    204.70481704565339
	SCF energy                   =   -435.85617596348061
	One-electron energy          =  -1014.47431958371351
	Two-electron energy          =    373.91332657458224
	Reference energy             =   -435.85617596347788

*** tstop() called on nh039 at Fri Jun  6 00:15:49 2025
Module time:
	user time   =      74.65 seconds =       1.24 minutes
	system time =      35.69 seconds =       0.59 minutes
	total time  =        106 seconds =       1.77 minutes
Total time:
	user time   =     473.85 seconds =       7.90 minutes
	system time =      45.12 seconds =       0.75 minutes
	total time  =        196 seconds =       3.27 minutes
            **************************
            *                        *
            *        CCENERGY        *
            *                        *
            **************************

    Nuclear Rep. energy (wfn)     =  204.704817045653385
    SCF energy          (wfn)     = -435.856175963480609
    Reference energy    (file100) = -435.856175963477881

    Input parameters:
    -----------------
    Wave function   =     CCSD
    Reference wfn   =     RHF
    Brueckner       =     No
    Memory (Mbytes) =     100000.0
    Maxiter         =     50
    R_Convergence   =     1.0e-07
    E_Convergence   =     1.0e-08
    Restart         =     Yes
    DIIS            =     Yes
    AO Basis        =     NONE
    ABCD            =     NEW
    Cache Level     =     2
    Cache Type      =     LOW
    Print Level     =     1
    Num. of threads =     40
    # Amps to Print =     10
    Print MP2 Amps? =     No
    Analyze T2 Amps =     No
    Print Pair Ener =     No
    Local CC        =     No
    SCS-MP2         =     False
    SCSN-MP2        =     False
    SCS-CCSD        =     False

MP2 correlation energy -1.3787727405675074
                Solving CC Amplitude Equations
                ------------------------------
  Iter             Energy              RMS        T1Diag      D1Diag    New D1Diag    D2Diag
  ----     ---------------------    ---------   ----------  ----------  ----------   --------
     0        -1.378772740567507    0.000e+00    0.000000    0.000000    0.000000    0.123072
     1        -1.346274606614546    7.386e-02    0.008984    0.027185    0.027185    0.119746
     2        -1.368918716649890    2.543e-02    0.008261    0.024644    0.024644    0.124687
     3        -1.374164626714474    9.102e-03    0.009568    0.029354    0.029354    0.126611
     4        -1.373409565719753    1.798e-03    0.009750    0.029997    0.029997    0.126829
     5        -1.373382882779753    7.864e-04    0.009847    0.030464    0.030464    0.126868
     6        -1.373421142547235    2.069e-04    0.009871    0.030581    0.030581    0.126856
     7        -1.373410727072260    7.252e-05    0.009875    0.030605    0.030605    0.126842
     8        -1.373408635200109    1.423e-05    0.009875    0.030609    0.030609    0.126842
     9        -1.373409482933440    4.165e-06    0.009875    0.030609    0.030609    0.126843
    10        -1.373408915063864    1.344e-06    0.009875    0.030609    0.030609    0.126843
    11        -1.373408994613668    3.178e-07    0.009875    0.030609    0.030609    0.126843
    12        -1.373408976456679    9.540e-08    0.009875    0.030609    0.030609    0.126843
    13        -1.373408977871587    2.393e-08    0.009875    0.030609    0.030609    0.126843
    14        -1.373408978467240    4.938e-09    0.009875    0.030609    0.030609    0.126843

    Iterations converged.


    Largest TIA Amplitudes:
              6   5         0.0200546161
             13 136         0.0200546161
             18 201         0.0200546161
              8   5        -0.0135859576
             14 136        -0.0135859576
             19 201        -0.0135859576
              8   1        -0.0132640204
             14 134        -0.0132640204
             19 199        -0.0132640204
             13 135         0.0099243156

    Largest TIjAb Amplitudes:
     13  13 136 136        -0.0190182886
     18  18 201 201        -0.0190182886
      5   5   4   4        -0.0175091082
      6   6   5   5        -0.0154548669
      5   6   4   5        -0.0130902464
      6   5   5   4        -0.0130902464
      5  13   4 136        -0.0130902464
     13   5 136   4        -0.0130902464
      5  18   4 201        -0.0130902464
     18   5 201   4        -0.0130902464

    SCF energy       (wfn)                    = -435.856175963480609
    Reference energy (file100)                = -435.856175963477881

    Opposite-spin MP2 correlation energy      =   -1.035460674975424
    Same-spin MP2 correlation energy          =   -0.343312065592083
    Singles MP2 correlation energy            =   -0.000000000000000
    MP2 correlation energy                    =   -1.378772740567507
      * MP2 total energy                      = -437.234948704045394

    Opposite-spin CCSD correlation energy     =   -1.063592593048907
    Same-spin CCSD correlation energy         =   -0.309816385418334
    Singles CCSD correlation energy           =    0.000000000000000
    CCSD correlation energy                   =   -1.373408978467240
      * CCSD total energy                     = -437.229584941945120


			**************************
			*                        *
			*         CCHBAR         *
			*                        *
			**************************


			**************************
			*        CCLAMBDA        *
			**************************


	Nuclear Rep. energy (wfn)     =  204.704817045653385
	Reference           (wfn)     =                    0
	SCF energy          (wfn)     = -435.856175963480609
	Reference energy    (CC_INFO) = -435.856175963477881
	CCSD energy         (CC_INFO) =   -1.373408978467240
	Total CCSD energy   (CC_INFO) = -437.229584941945120

	Input parameters:
	-----------------
	Maxiter           =     50
	Convergence       = 1.0e-07
	Restart           =     No
	Cache Level       =     2
	Model III         =     No
	DIIS              =     Yes
	AO Basis          =     No
	ABCD              =     NEW
	Local CC          =     No
	Parameters for left-handed eigenvectors:
	    Irr   Root  Ground-State?    EOM energy        R0
	  1   0     0        Yes       0.0000000000   1.0000000000
	Labels for eigenvector 1:
	LIA 0 -1, Lia 0 -1, LIJAB 0 -1, Lijab 0 -1, LIjAb 0 -1, 2LIjAb - LIjbA 0 -1
	Deleting old CC_LAMBDA data.
	Symmetry of left-hand state: A1
	Symmetry of left-hand eigenvector: A1

	          Solving Lambda Equations
	          ------------------------
	Iter     PseudoEnergy or Norm         RMS  
	----     ---------------------     --------
	   0        -1.373920723152821    0.000e+00
	   1        -1.350958723220906    3.233e-02
	   2        -1.347628603219227    5.710e-03
	   3        -1.347160071160760    3.486e-03
	   4        -1.346974837205023    8.000e-04
	   5        -1.347018486464948    2.722e-04
	   6        -1.347015854063150    7.615e-05
	   7        -1.347013144940400    2.646e-05
	   8        -1.347014010236147    6.193e-06
	   9        -1.347014005554712    1.755e-06
	  10        -1.347013930281519    3.169e-07
	  11        -1.347013929162077    8.646e-08

	Largest LIA Amplitudes:
	          6   5         0.0108204523
	         13 136         0.0108204523
	         18 201         0.0108204523
	          8   5        -0.0107314928
	         14 136        -0.0107314928
	         19 201        -0.0107314928
	          8   1        -0.0091667007
	         14 134        -0.0091667007
	         19 199        -0.0091667007
	          7   3        -0.0063398282

	Largest LIjAb Amplitudes:
	 13  13 136 136        -0.0181974116
	 18  18 201 201        -0.0181974116
	  5   5   4   4        -0.0169056344
	  6   6   5   5        -0.0148263644
	  5   6   4   5        -0.0125646180
	  6   5   5   4        -0.0125646180
	  5  13   4 136        -0.0125646180
	 13   5 136   4        -0.0125646180
	  5  18   4 201        -0.0125646180
	 18   5 201   4        -0.0125646180

	Iterations converged.

	Overlap <L|e^T> =        0.77788585808

			**************************
			*                        *
			*        CCDENSITY       *
			*                        *
			**************************


	Input parameters:
	-----------------
	Wave function    =   CCSD
	Reference wfn    =   RHF
	Dertype          = 0
	Tolerance        = 1.0e-14
	Cache Level      = 2
	AO Basis         = No
	OPDM Only        = Yes
	Relax OPDM       = No
	Compute Xi       = No
	Use Zeta         = No
	Xi connected     = Yes
	Compute NO       = No

	Nuclear Rep. energy (wfn)     =  204.704817045653385
	SCF energy          (wfn)     = -435.856175963480609
	Reference energy    (file100) = -435.856175963477881
	CCSD energy         (CC_INFO) =   -1.373408978467240
	Total CCSD energy   (CC_INFO) = -437.229584941945120
	Number of States = 1

	Ground?  State     EOM Energy       R0
	  Yes     0 A1    0.0000000000   1.00000000


Properties will be evaluated at   0.000000,   0.000000,   0.000000 [a0]

Properties computed using the CCSD density matrix

  Natural Orbital Occupations:

  Total Occupations:
  HONO-2 :    9 A1    1.960
  HONO-1 :    5 B1    1.960
  HONO-0 :    5 B2    1.960
  LUNO+0 :   10 A1    0.038
  LUNO+1 :    6 B2    0.032
  LUNO+2 :    6 B1    0.032
  LUNO+3 :   11 A1    0.032


    Psi4 stopped on: Friday, 06 June 2025 12:19AM
    Psi4 wall time for execution: 0:07:20.85

*** Psi4 exiting successfully. Buy a developer a beer!
