
    -----------------------------------------------------------------------
          Psi4: An Open-Source Ab Initio Electronic Structure Package
                               Psi4 1.9.1 release

                         Git: Rev {} zzzzzzz 


    D. G. A. Smith, L. A. Burns, A. C. Simmonett, R. M. Parrish,
    M. C. Schieber, R. Galvelis, P. Kraus, H. Kruse, R. Di Remigio,
    A. Alenaizan, A. M. James, S. Lehtola, J. P. Misiewicz, M. Scheurer,
    R. A. Shaw, J. B. Schriber, Y. Xie, Z. L. Glick, D. A. Sirianni,
    J. S. O'Brien, J. M. Waldrop, A. Kumar, E. G. Hohenstein,
    B. P. Pritchard, B. R. Brooks, H. F. Schaefer III, A. Yu. Sokolov,
    K. Patkowski, A. E. DePrince III, U. Bozkaya, R. A. King,
    F. A. Evangelista, J. M. Turney, T. D. Crawford, C. D. Sherrill,
    J. Chem. Phys. 152(18) 184108 (2020). https://doi.org/10.1063/5.0006002

                            Additional Code Authors
    E. T. Seidl, C. L. Janssen, E. F. Valeev, M. L. Leininger,
    J. F. Gonthier, R. M. Richard, H. R. McAlexander, M. Saitow, X. Wang,
    P. Verma, M. H. Lechner, A. Jiang, S. Behnle, A. G. Heide,
    M. F. Herbst, and D. L. Poole

             Previous Authors, Complete List of Code Contributors,
                       and Citations for Specific Modules
    https://github.com/psi4/psi4/blob/master/codemeta.json
    https://github.com/psi4/psi4/graphs/contributors
    http://psicode.org/psi4manual/master/introduction.html#citing-psifour

    -----------------------------------------------------------------------


    Psi4 started on: Wednesday, 04 June 2025 11:28AM

    Process ID: 2766531
    Host:       OptiPlex-Tower-Plus-7020
    PSIDATADIR: /home/jfhlewyee/anaconda3/envs/psi4/share/psi4
    Memory:     500.0 MiB
    Threads:    20
    
  ==> Input File <==

--------------------------------------------------------------------------
memory 20Gb

molecule{
0 2
H     0.000000  0.000000  0.000000
}

set reference rohf

energy("CCSD(T)/def2-QZVP")
--------------------------------------------------------------------------

  Memory set to  18.626 GiB by Python driver.

Scratch directory: /tmp/
   => Libint2 <=

    Primary   basis highest AM E, G, H:  6, 6, 3
    Auxiliary basis highest AM E, G, H:  7, 7, 4
    Onebody   basis highest AM E, G, H:  -, -, -
    Solid Harmonics ordering:            Gaussian

*** tstart() called on OptiPlex-Tower-Plus-7020
*** at Wed Jun  4 11:28:03 2025

   => Loading Basis Set <=

    Name: DEF2-QZVP
    Role: ORBITAL
    Keyword: BASIS
    atoms 1 entry H          line    15 file /home/jfhlewyee/anaconda3/envs/psi4/share/psi4/basis/def2-qzvp.gbs 


         ---------------------------------------------------------
                                   SCF
               by Justin Turney, Rob Parrish, Andy Simmonett
                          and Daniel G. A. Smith
                             ROHF Reference
                       20 Threads,  19073 MiB Core
         ---------------------------------------------------------

  ==> Geometry <==

    Molecular point group: d2h
    Geometry (in Angstrom), charge = 0, multiplicity = 2:

       Center              X                  Y                   Z               Mass       
    ------------   -----------------  -----------------  -----------------  -----------------
         H            0.000000000000     0.000000000000     0.000000000000     1.007825032230

  Running in d2h symmetry.

  Rotational constants: A = ************  B = ************  C = ************ [cm^-1]
  Rotational constants: A = ************  B = ************  C = ************ [MHz]
  Nuclear repulsion =    0.000000000000000

  Charge       = 0
  Multiplicity = 2
  Electrons    = 1
  Nalpha       = 1
  Nbeta        = 0

  ==> Algorithm <==

  SCF Algorithm Type is PK.
  DIIS enabled.
  MOM disabled.
  Fractional occupation disabled.
  Guess Type is CORE.
  Energy threshold   = 1.00e-08
  Density threshold  = 1.00e-08
  Integral threshold = 1.00e-12

  ==> Primary Basis <==

  Basis Set: DEF2-QZVP
    Blend: DEF2-QZVP
    Number of shells: 10
    Number of basis functions: 30
    Number of Cartesian functions: 35
    Spherical Harmonics?: true
    Max angular momentum: 3

  ==> Integral Setup <==

  Using in-core PK algorithm.
   Calculation information:
      Number of atoms:                   1
      Number of AO shells:              10
      Number of primitives:             13
      Number of atomic orbitals:        35
      Number of basis functions:        30

      Integral cutoff                 1.00e-12
      Number of threads:                20

  Performing in-core PK
  Using 216690 doubles for integral storage.
  We computed 8649 shell quartets total.
  Whereas there are 1540 unique shell quartets.
   461.62 percent of shell quartets recomputed by reordering.

  ==> DiskJK: Disk-Based J/K Matrices <==

    J tasked:                  Yes
    K tasked:                  Yes
    wK tasked:                  No
    Memory [MiB]:            14305
    Schwarz Cutoff:          1E-12

    OpenMP threads:             20

  Minimum eigenvalue in the overlap matrix is 3.3909216693E-02.
  Reciprocal condition number of the overlap matrix is 1.1967092874E-02.
    Using symmetric orthogonalization.

  ==> Pre-Iterations <==

  SCF Guess: Core (One-Electron) Hamiltonian.

   -------------------------------------------------------
    Irrep   Nso     Nmo     Nalpha   Nbeta   Ndocc  Nsocc
   -------------------------------------------------------
     Ag         8       8       1       0       0       1
     B1g        2       2       0       0       0       0
     B2g        2       2       0       0       0       0
     B3g        2       2       0       0       0       0
     Au         1       1       0       0       0       0
     B1u        5       5       0       0       0       0
     B2u        5       5       0       0       0       0
     B3u        5       5       0       0       0       0
   -------------------------------------------------------
    Total      30      30       1       0       0       1
   -------------------------------------------------------

  ==> Iterations <==

                        Total Energy        Delta E     RMS |[F,P]|

   @ROHF iter   1:    -0.49998329778914   -4.99983e-01   3.16645e-17 DIIS
   @ROHF iter   2:    -0.49998329778914   -6.10623e-16   4.30987e-17 DIIS
  Energy and wave function converged.


  ==> Post-Iterations <==

    Orbital Energies [Eh]
    ---------------------

    Doubly Occupied:                                                      

    

    Singly Occupied:                                                      

       1Ag    -0.187478  

    Virtual:                                                              

       2Ag     0.242124     1B2u    0.570151     1B1u    0.570151  
       1B3u    0.570151     3Ag     1.217867     4Ag     2.090553  
       1B1g    2.090553     1B2g    2.090553     1B3g    2.090553  
       5Ag     2.090553     2B3u    2.390794     2B1u    2.390794  
       2B2u    2.390794     6Ag     5.360305     3B1u    6.070878  
       3B3u    6.070878     3B2u    6.070878     1Au     6.070878  
       4B2u    6.070878     4B1u    6.070878     4B3u    6.070878  
       5B3u    7.793151     5B2u    7.793151     5B1u    7.793151  
       2B3g    8.142945     2B1g    8.142945     2B2g    8.142945  
       7Ag     8.142945     8Ag     8.142945  

    Final Occupation by Irrep:
             Ag   B1g   B2g   B3g    Au   B1u   B2u   B3u 
    DOCC [     0,    0,    0,    0,    0,    0,    0,    0 ]
    SOCC [     1,    0,    0,    0,    0,    0,    0,    0 ]
    NA   [     1,    0,    0,    0,    0,    0,    0,    0 ]
    NB   [     0,    0,    0,    0,    0,    0,    0,    0 ]

  @ROHF Final Energy:    -0.49998329778914

   => Energetics <=

    Nuclear Repulsion Energy =              0.0000000000000000
    One-Electron Energy =                  -0.4999832977891441
    Two-Electron Energy =                   0.0000000000000000
    Total Energy =                         -0.4999832977891441

Computation Completed


Properties will be evaluated at   0.000000,   0.000000,   0.000000 [a0]

Properties computed using the SCF density matrix


 Multipole Moments:

 ------------------------------------------------------------------------------------
     Multipole            Electronic (a.u.)      Nuclear  (a.u.)        Total (a.u.)
 ------------------------------------------------------------------------------------

 L = 1.  Multiply by 2.5417464519 to convert [e a0] to [Debye]
 Dipole X            :          0.0000000            0.0000000            0.0000000
 Dipole Y            :          0.0000000            0.0000000            0.0000000
 Dipole Z            :          0.0000000            0.0000000            0.0000000
 Magnitude           :                                                    0.0000000

 ------------------------------------------------------------------------------------

*** tstop() called on OptiPlex-Tower-Plus-7020 at Wed Jun  4 11:28:04 2025
Module time:
	user time   =       0.09 seconds =       0.00 minutes
	system time =       0.02 seconds =       0.00 minutes
	total time  =          1 seconds =       0.02 minutes
Total time:
	user time   =       0.09 seconds =       0.00 minutes
	system time =       0.02 seconds =       0.00 minutes
	total time  =          1 seconds =       0.02 minutes
 MINTS: Wrapper to libmints.
   by Justin Turney

   Calculation information:
      Number of threads:                20
      Number of atoms:                   1
      Number of AO shells:              10
      Number of SO shells:              10
      Number of primitives:             13
      Number of atomic orbitals:        35
      Number of basis functions:        30

      Number of irreps:                  8
      Integral cutoff                 1.00e-12
      Number of functions per irrep: [   8    2    2    2    1    5    5    5 ]

 OEINTS: Overlap, kinetic, potential, dipole, and quadrupole integrals
         stored in file 35.

      Computing two-electron integrals...done
      Computed 11764 non-zero two-electron integrals.
        Stored in file 33.


*** tstart() called on OptiPlex-Tower-Plus-7020
*** at Wed Jun  4 11:28:04 2025


	Wfn Parameters:
	--------------------
	Wavefunction         = CCSD_T
	Number of irreps     = 8
	Number of MOs        = 30
	Number of active MOs = 30
	AO-Basis             = NONE
	Semicanonical        = true
	Reference            = ROHF changed to UHF for semicanonical orbitals
	Print Level          = 1

	IRREP	# MOs	# FZDC	# DOCC	# SOCC	# VIRT	# FZVR
	-----	-----	------	------	------	------	------
	 Ag	   8	    0	    0	    1	    7	    0
	 B1g	   2	    0	    0	    0	    2	    0
	 B2g	   2	    0	    0	    0	    2	    0
	 B3g	   2	    0	    0	    0	    2	    0
	 Au	   1	    0	    0	    0	    1	    0
	 B1u	   5	    0	    0	    0	    5	    0
	 B2u	   5	    0	    0	    0	    5	    0
	 B3u	   5	    0	    0	    0	    5	    0
	Transforming integrals...
	IWL integrals will be deleted.
	(OO|OO)...
	Presorting SO-basis two-electron integrals.
	Sorting File: SO Ints (nn|nn) nbuckets = 1
	Constructing frozen core operators
	Starting AA/AB first half-transformation.
	Sorting AA/AB half-transformed integrals.
	Starting BB first half-transformation.
	Sorting BB half-transformed integrals.
	First half integral transformation complete.
	Starting AA second half-transformation.
	Starting AB second half-transformation.
	Starting BB second half-transformation.
	Two-electron integral transformation complete.
	(OO|OV)...
	Starting AA second half-transformation.
	Starting AB second half-transformation.
	Starting BB second half-transformation.
	Two-electron integral transformation complete.
	(OO|VV)...
	Starting AA second half-transformation.
	Starting AB second half-transformation.
	Starting BB second half-transformation.
	Two-electron integral transformation complete.
	(OV|OO)...
	Starting AA/AB first half-transformation.
	Sorting AA/AB half-transformed integrals.
	Starting BB first half-transformation.
	Sorting BB half-transformed integrals.
	First half integral transformation complete.
	Starting AA second half-transformation.
	Starting AB second half-transformation.
	Starting BB second half-transformation.
	Two-electron integral transformation complete.
	(OV|OV)...
	Starting AA second half-transformation.
	Starting AB second half-transformation.
	Starting BB second half-transformation.
	Two-electron integral transformation complete.
	(OV|VV)...
	Starting AA second half-transformation.
	Starting AB second half-transformation.
	Starting BB second half-transformation.
	Two-electron integral transformation complete.
	(VV|OO)...
	Starting AA/AB first half-transformation.
	Sorting AA/AB half-transformed integrals.
	Starting BB first half-transformation.
	Sorting BB half-transformed integrals.
	First half integral transformation complete.
	Starting AA second half-transformation.
	Starting AB second half-transformation.
	Starting BB second half-transformation.
	Two-electron integral transformation complete.
	(VV|OV)...
	Starting AA second half-transformation.
	Starting AB second half-transformation.
	Starting BB second half-transformation.
	Two-electron integral transformation complete.
	(VV|VV)...
	Starting AA second half-transformation.
	Starting AB second half-transformation.
	Starting BB second half-transformation.
	Two-electron integral transformation complete.
	Frozen core energy     =      0.00000000000000

	Size of irrep 0 of <AB|CD> integrals:      0.003 (MW) /      0.023 (MB)
	Size of irrep 1 of <AB|CD> integrals:      0.002 (MW) /      0.018 (MB)
	Size of irrep 2 of <AB|CD> integrals:      0.002 (MW) /      0.018 (MB)
	Size of irrep 3 of <AB|CD> integrals:      0.002 (MW) /      0.018 (MB)
	Size of irrep 4 of <AB|CD> integrals:      0.001 (MW) /      0.011 (MB)
	Size of irrep 5 of <AB|CD> integrals:      0.003 (MW) /      0.026 (MB)
	Size of irrep 6 of <AB|CD> integrals:      0.003 (MW) /      0.026 (MB)
	Size of irrep 7 of <AB|CD> integrals:      0.003 (MW) /      0.026 (MB)
	Total:                                     0.021 (MW) /      0.168 (MB)

	Size of irrep 0 of <ab|cd> integrals:      0.004 (MW) /      0.030 (MB)
	Size of irrep 1 of <ab|cd> integrals:      0.003 (MW) /      0.020 (MB)
	Size of irrep 2 of <ab|cd> integrals:      0.003 (MW) /      0.020 (MB)
	Size of irrep 3 of <ab|cd> integrals:      0.003 (MW) /      0.020 (MB)
	Size of irrep 4 of <ab|cd> integrals:      0.001 (MW) /      0.012 (MB)
	Size of irrep 5 of <ab|cd> integrals:      0.004 (MW) /      0.031 (MB)
	Size of irrep 6 of <ab|cd> integrals:      0.004 (MW) /      0.031 (MB)
	Size of irrep 7 of <ab|cd> integrals:      0.004 (MW) /      0.031 (MB)
	Total:                                     0.024 (MW) /      0.194 (MB)

	Size of irrep 0 of <Ab|Cd> integrals:      0.021 (MW) /      0.166 (MB)
	Size of irrep 1 of <Ab|Cd> integrals:      0.010 (MW) /      0.077 (MB)
	Size of irrep 2 of <Ab|Cd> integrals:      0.010 (MW) /      0.077 (MB)
	Size of irrep 3 of <Ab|Cd> integrals:      0.010 (MW) /      0.077 (MB)
	Size of irrep 4 of <Ab|Cd> integrals:      0.006 (MW) /      0.045 (MB)
	Size of irrep 5 of <Ab|Cd> integrals:      0.014 (MW) /      0.113 (MB)
	Size of irrep 6 of <Ab|Cd> integrals:      0.014 (MW) /      0.113 (MB)
	Size of irrep 7 of <Ab|Cd> integrals:      0.014 (MW) /      0.113 (MB)
	Total:                                     0.098 (MW) /      0.781 (MB)

	Size of irrep 0 of <IA|BC> integrals:      0.001 (MW) /      0.008 (MB)
	Size of irrep 1 of <IA|BC> integrals:      0.000 (MW) /      0.002 (MB)
	Size of irrep 2 of <IA|BC> integrals:      0.000 (MW) /      0.002 (MB)
	Size of irrep 3 of <IA|BC> integrals:      0.000 (MW) /      0.002 (MB)
	Size of irrep 4 of <IA|BC> integrals:      0.000 (MW) /      0.001 (MB)
	Size of irrep 5 of <IA|BC> integrals:      0.001 (MW) /      0.005 (MB)
	Size of irrep 6 of <IA|BC> integrals:      0.001 (MW) /      0.005 (MB)
	Size of irrep 7 of <IA|BC> integrals:      0.001 (MW) /      0.005 (MB)
	Total:                                     0.003 (MW) /      0.027 (MB)

	Size of irrep 0 of <ia|bc> integrals:      0.000 (MW) /      0.000 (MB)
	Size of irrep 1 of <ia|bc> integrals:      0.000 (MW) /      0.000 (MB)
	Size of irrep 2 of <ia|bc> integrals:      0.000 (MW) /      0.000 (MB)
	Size of irrep 3 of <ia|bc> integrals:      0.000 (MW) /      0.000 (MB)
	Size of irrep 4 of <ia|bc> integrals:      0.000 (MW) /      0.000 (MB)
	Size of irrep 5 of <ia|bc> integrals:      0.000 (MW) /      0.000 (MB)
	Size of irrep 6 of <ia|bc> integrals:      0.000 (MW) /      0.000 (MB)
	Size of irrep 7 of <ia|bc> integrals:      0.000 (MW) /      0.000 (MB)
	Total:                                     0.000 (MW) /      0.000 (MB)

	Size of irrep 0 of <Ia|Bc> integrals:      0.001 (MW) /      0.009 (MB)
	Size of irrep 1 of <Ia|Bc> integrals:      0.000 (MW) /      0.002 (MB)
	Size of irrep 2 of <Ia|Bc> integrals:      0.000 (MW) /      0.002 (MB)
	Size of irrep 3 of <Ia|Bc> integrals:      0.000 (MW) /      0.002 (MB)
	Size of irrep 4 of <Ia|Bc> integrals:      0.000 (MW) /      0.001 (MB)
	Size of irrep 5 of <Ia|Bc> integrals:      0.001 (MW) /      0.005 (MB)
	Size of irrep 6 of <Ia|Bc> integrals:      0.001 (MW) /      0.005 (MB)
	Size of irrep 7 of <Ia|Bc> integrals:      0.001 (MW) /      0.005 (MB)
	Total:                                     0.004 (MW) /      0.029 (MB)

	Size of irrep 0 of <iA|bC> integrals:      0.000 (MW) /      0.000 (MB)
	Size of irrep 1 of <iA|bC> integrals:      0.000 (MW) /      0.000 (MB)
	Size of irrep 2 of <iA|bC> integrals:      0.000 (MW) /      0.000 (MB)
	Size of irrep 3 of <iA|bC> integrals:      0.000 (MW) /      0.000 (MB)
	Size of irrep 4 of <iA|bC> integrals:      0.000 (MW) /      0.000 (MB)
	Size of irrep 5 of <iA|bC> integrals:      0.000 (MW) /      0.000 (MB)
	Size of irrep 6 of <iA|bC> integrals:      0.000 (MW) /      0.000 (MB)
	Size of irrep 7 of <iA|bC> integrals:      0.000 (MW) /      0.000 (MB)
	Total:                                     0.000 (MW) /      0.000 (MB)

	Size of irrep 0 of tIjAb amplitudes:       0.000 (MW) /      0.000 (MB)
	Size of irrep 1 of tIjAb amplitudes:       0.000 (MW) /      0.000 (MB)
	Size of irrep 2 of tIjAb amplitudes:       0.000 (MW) /      0.000 (MB)
	Size of irrep 3 of tIjAb amplitudes:       0.000 (MW) /      0.000 (MB)
	Size of irrep 4 of tIjAb amplitudes:       0.000 (MW) /      0.000 (MB)
	Size of irrep 5 of tIjAb amplitudes:       0.000 (MW) /      0.000 (MB)
	Size of irrep 6 of tIjAb amplitudes:       0.000 (MW) /      0.000 (MB)
	Size of irrep 7 of tIjAb amplitudes:       0.000 (MW) /      0.000 (MB)
	Total:                                     0.000 (MW) /      0.000 (MB)

	Nuclear Rep. energy          =      0.00000000000000
	SCF energy                   =     -0.49998329778914
	One-electron energy          =     -0.49998329778914
	Two-electron (AA) energy     =      0.00000000000000
	Two-electron (BB) energy     =      0.00000000000000
	Two-electron (AB) energy     =      0.00000000000000
	Two-electron energy          =      0.00000000000000
	Reference energy             =     -0.49998329778914

*** tstop() called on OptiPlex-Tower-Plus-7020 at Wed Jun  4 11:28:04 2025
Module time:
	user time   =       0.01 seconds =       0.00 minutes
	system time =       0.01 seconds =       0.00 minutes
	total time  =          0 seconds =       0.00 minutes
Total time:
	user time   =       0.11 seconds =       0.00 minutes
	system time =       0.03 seconds =       0.00 minutes
	total time  =          1 seconds =       0.02 minutes
            **************************
            *                        *
            *        CCENERGY        *
            *                        *
            **************************

    Nuclear Rep. energy (wfn)     =    0.000000000000000
    SCF energy          (wfn)     =   -0.499983297789144
    Reference energy    (file100) =   -0.499983297789144

    Input parameters:
    -----------------
    Wave function   =     CCSD_T
    Reference wfn   =     ROHF changed to UHF for Semicanonical Orbitals
    Brueckner       =     No
    Memory (Mbytes) =     20000.0
    Maxiter         =     50
    R_Convergence   =     1.0e-07
    E_Convergence   =     1.0e-06
    Restart         =     Yes
    DIIS            =     Yes
    AO Basis        =     NONE
    ABCD            =     NEW
    Cache Level     =     2
    Cache Type      =     LRU
    Print Level     =     1
    Num. of threads =     20
    # Amps to Print =     10
    Print MP2 Amps? =     No
    Analyze T2 Amps =     No
    Print Pair Ener =     No
    Local CC        =     No
    SCS-MP2         =     False
    SCSN-MP2        =     False
    SCS-CCSD        =     False

MP2 correlation energy -0.0000000000000000
                Solving CC Amplitude Equations
                ------------------------------
  Iter             Energy              RMS        T1Diag      D1Diag    New D1Diag    D2Diag
  ----     ---------------------    ---------   ----------  ----------  ----------   --------
     0        -0.000000000000000    0.000e+00    0.000000    0.000000    0.000000    0.000000
     1        -0.000000000000000    1.865e-16    0.000000    0.000000    0.000000    0.000000

    Iterations converged.


    SCF energy       (wfn)                    =   -0.499983297789144
    Reference energy (file100)                =   -0.499983297789144

    Opposite-spin MP2 correlation energy      =    0.000000000000000
    Same-spin MP2 correlation energy          =    0.000000000000000
    Singles MP2 correlation energy            =   -0.000000000000000
    MP2 correlation energy                    =   -0.000000000000000
      * MP2 total energy                      =   -0.499983297789144

    Opposite-spin CCSD correlation energy     =    0.000000000000000
    Same-spin CCSD correlation energy         =    0.000000000000000
    Singles CCSD correlation energy           =   -0.000000000000000
    CCSD correlation energy                   =   -0.000000000000000
      * CCSD total energy                     =   -0.499983297789144

            **************************
            *                        *
            *        CCTRIPLES       *
            *                        *
            **************************


    Wave function   =    CCSD_T
    Reference wfn   =    ROHF changed to UHF for Semicanonical Orbitals

    Nuclear Rep. energy (wfn)                =    0.000000000000000
    SCF energy          (wfn)                =   -0.499983297789144
    Reference energy    (file100)            =   -0.499983297789144
    CCSD energy         (file100)            =   -0.000000000000000
    Total CCSD energy   (file100)            =   -0.499983297789144

    Number of ijk index combinations:
    Spin Case AAA:                                   0
    Spin Case BBB:                                   0
    Spin Case AAB:                                   0
    Spin Case ABB:                                   0
    AAA (T) energy                             =    0.000000000000000
    BBB (T) energy                             =    0.000000000000000
    AAB (T) energy                             =    0.000000000000000
    ABB (T) energy                             =    0.000000000000000
    (T) energy                                   =    0.000000000000000
      * CCSD(T) total energy                     =   -0.499983297789144


    Psi4 stopped on: Wednesday, 04 June 2025 11:28AM
    Psi4 wall time for execution: 0:00:00.11

*** Psi4 exiting successfully. Buy a developer a beer!
