
    -----------------------------------------------------------------------
          Psi4: An Open-Source Ab Initio Electronic Structure Package
                               Psi4 1.9.1 release

                         Git: Rev {} zzzzzzz 


    D. G. A. Smith, L. A. Burns, A. C. Simmonett, R. M. Parrish,
    M. C. Schieber, R. Galvelis, P. Kraus, H. Kruse, R. Di Remigio,
    A. Alenaizan, A. M. James, S. Lehtola, J. P. Misiewicz, M. Scheurer,
    R. A. Shaw, J. B. Schriber, Y. Xie, Z. L. Glick, D. A. Sirianni,
    J. S. O'Brien, J. M. Waldrop, A. Kumar, E. G. Hohenstein,
    B. P. Pritchard, B. R. Brooks, H. F. Schaefer III, A. Yu. Sokolov,
    K. Patkowski, A. E. DePrince III, U. Bozkaya, R. A. King,
    F. A. Evangelista, J. M. Turney, T. D. Crawford, C. D. Sherrill,
    J. Chem. Phys. 152(18) 184108 (2020). https://doi.org/10.1063/5.0006002

                            Additional Code Authors
    E. T. Seidl, C. L. Janssen, E. F. Valeev, M. L. Leininger,
    J. F. Gonthier, R. M. Richard, H. R. McAlexander, M. Saitow, X. Wang,
    P. Verma, M. H. Lechner, A. Jiang, S. Behnle, A. G. Heide,
    M. F. Herbst, and D. L. Poole

             Previous Authors, Complete List of Code Contributors,
                       and Citations for Specific Modules
    https://github.com/psi4/psi4/blob/master/codemeta.json
    https://github.com/psi4/psi4/graphs/contributors
    http://psicode.org/psi4manual/master/introduction.html#citing-psifour

    -----------------------------------------------------------------------


    Psi4 started on: Friday, 06 June 2025 12:13AM

    Process ID: 2654608
    Host:       nh043
    PSIDATADIR: /software-nas/eb2024/easybuild/software/rocky/8.9/intel/cascadelake/software/PSI4/1.9.1-foss-2023b/share/psi4
    Memory:     500.0 MiB
    Threads:    40
    
  ==> Input File <==

--------------------------------------------------------------------------
memory 100Gb

molecule{
0 4
N     0.000000  0.000000  0.000000
}

set reference rohf

properties("CCSD/def2-QZVP", properties=["NO_OCCUPATIONS"])
--------------------------------------------------------------------------

  Memory set to  93.132 GiB by Python driver.
   => Libint2 <=

    Primary   basis highest AM E, G, H:  5, 4, 3
    Auxiliary basis highest AM E, G, H:  6, 5, 4
    Onebody   basis highest AM E, G, H:  6, 5, 4
    Solid Harmonics ordering:            Gaussian

*** tstart() called on nh043
*** at Fri Jun  6 00:13:28 2025

   => Loading Basis Set <=

    Name: DEF2-QZVP
    Role: ORBITAL
    Keyword: BASIS
    atoms 1 entry N          line   242 file /software-nas/eb2024/easybuild/software/rocky/8.9/intel/cascadelake/software/PSI4/1.9.1-foss-2023b/share/psi4/basis/def2-qzvp.gbs 


         ---------------------------------------------------------
                                   SCF
               by Justin Turney, Rob Parrish, Andy Simmonett
                          and Daniel G. A. Smith
                             ROHF Reference
                       40 Threads,  95367 MiB Core
         ---------------------------------------------------------

  ==> Geometry <==

    Molecular point group: d2h
    Geometry (in Angstrom), charge = 0, multiplicity = 4:

       Center              X                  Y                   Z               Mass       
    ------------   -----------------  -----------------  -----------------  -----------------
         N            0.000000000000     0.000000000000     0.000000000000    14.003074004430

  Running in d2h symmetry.

  Rotational constants: A = ************  B = ************  C = ************ [cm^-1]
  Rotational constants: A = ************  B = ************  C = ************ [MHz]
  Nuclear repulsion =    0.000000000000000

  Charge       = 0
  Multiplicity = 4
  Electrons    = 7
  Nalpha       = 5
  Nbeta        = 2

  ==> Algorithm <==

  SCF Algorithm Type is PK.
  DIIS enabled.
  MOM disabled.
  Fractional occupation disabled.
  Guess Type is CORE.
  Energy threshold   = 1.00e-10
  Density threshold  = 1.00e-10
  Integral threshold = 1.00e-12

  ==> Primary Basis <==

  Basis Set: DEF2-QZVP
    Blend: DEF2-QZVP
    Number of shells: 17
    Number of basis functions: 57
    Number of Cartesian functions: 72
    Spherical Harmonics?: true
    Max angular momentum: 4

  ==> Integral Setup <==

  Using in-core PK algorithm.
   Calculation information:
      Number of atoms:                   1
      Number of AO shells:              17
      Number of primitives:             29
      Number of atomic orbitals:        72
      Number of basis functions:        57

      Integral cutoff                 1.00e-12
      Number of threads:                40

  Performing in-core PK
  Using 2734062 doubles for integral storage.
  We computed 79679 shell quartets total.
  Whereas there are 11781 unique shell quartets.
   576.33 percent of shell quartets recomputed by reordering.

  ==> DiskJK: Disk-Based J/K Matrices <==

    J tasked:                  Yes
    K tasked:                  Yes
    wK tasked:                  No
    Memory [MiB]:            71525
    Schwarz Cutoff:          1E-12

    OpenMP threads:             40

  Minimum eigenvalue in the overlap matrix is 5.9468656954E-03.
  Reciprocal condition number of the overlap matrix is 1.4886338978E-03.
    Using symmetric orthogonalization.

  ==> Pre-Iterations <==

  SCF Guess: Core (One-Electron) Hamiltonian.

   -------------------------------------------------------
    Irrep   Nso     Nmo     Nalpha   Nbeta   Ndocc  Nsocc
   -------------------------------------------------------
     Ag        16      16       2       2       2       0
     B1g        5       5       0       0       0       0
     B2g        5       5       0       0       0       0
     B3g        5       5       0       0       0       0
     Au         2       2       0       0       0       0
     B1u        8       8       1       0       0       1
     B2u        8       8       1       0       0       1
     B3u        8       8       1       0       0       1
   -------------------------------------------------------
    Total      57      57       5       2       2       3
   -------------------------------------------------------

  ==> Iterations <==

                        Total Energy        Delta E     RMS |[F,P]|

   @ROHF iter   1:   -49.50429399196662   -4.95043e+01   1.72854e-01 DIIS
   @ROHF iter   2:   -52.01611397078482   -2.51182e+00   4.67248e-02 DIIS
   @ROHF iter   3:   -54.17280046031507   -2.15669e+00   3.04142e-02 DIIS
   @ROHF iter   4:   -54.38735027946635   -2.14550e-01   6.91615e-03 DIIS
   @ROHF iter   5:   -54.40067684220853   -1.33266e-02   4.69079e-04 DIIS
   @ROHF iter   6:   -54.40080824875351   -1.31407e-04   8.67245e-05 DIIS
   @ROHF iter   7:   -54.40081400426976   -5.75552e-06   1.95248e-05 DIIS
   @ROHF iter   8:   -54.40081427196925   -2.67699e-07   7.04919e-06 DIIS
   @ROHF iter   9:   -54.40081429219221   -2.02230e-08   4.43371e-07 DIIS
   @ROHF iter  10:   -54.40081429225702   -6.48086e-11   6.96072e-09 DIIS
   @ROHF iter  11:   -54.40081429225705   -3.55271e-14   1.95812e-10 DIIS
   @ROHF iter  12:   -54.40081429225706   -7.10543e-15   1.81896e-12 DIIS
  Energy and wave function converged.


  ==> Post-Iterations <==

    Orbital Energies [Eh]
    ---------------------

    Doubly Occupied:                                                      

       1Ag   -15.629003     2Ag    -0.945281  

    Singly Occupied:                                                      

       1B2u   -0.180240     1B1u   -0.180240     1B3u   -0.180240  

    Virtual:                                                              

       2B2u    0.313971     2B3u    0.313971     2B1u    0.313971  
       3Ag     0.420867     4Ag     0.927756     1B2g    0.927756  
       1B1g    0.927756     5Ag     0.927756     1B3g    0.927756  
       3B1u    1.322440     3B3u    1.322440     3B2u    1.322440  
       6Ag     2.373028     4B1u    2.692682     1Au     2.692682  
       4B3u    2.692682     4B2u    2.692682     5B1u    2.692682  
       5B2u    2.692682     5B3u    2.692682     2B3g    3.084667  
       7Ag     3.084667     2B1g    3.084667     2B2g    3.084667  
       8Ag     3.084667     6B3u    4.405662     6B2u    4.405662  
       6B1u    4.405662     9Ag     7.190288     3B1g    7.190288  
       3B2g    7.190288     3B3g    7.190288     4B1g    7.190288  
       4B2g    7.190288     4B3g    7.190288    10Ag     7.190288  
      11Ag     7.190288     7B2u    8.840617     7B1u    8.840617  
       2Au     8.840617     8B1u    8.840617     8B2u    8.840617  
       7B3u    8.840617     8B3u    8.840617    12Ag     9.427736  
       5B2g    9.427736     5B1g    9.427736     5B3g    9.427736  
      13Ag     9.427736    14Ag     9.856600    15Ag    37.071556  
      16Ag   197.797532  

    Final Occupation by Irrep:
             Ag   B1g   B2g   B3g    Au   B1u   B2u   B3u 
    DOCC [     2,    0,    0,    0,    0,    0,    0,    0 ]
    SOCC [     0,    0,    0,    0,    0,    1,    1,    1 ]
    NA   [     2,    0,    0,    0,    0,    1,    1,    1 ]
    NB   [     2,    0,    0,    0,    0,    0,    0,    0 ]

  @ROHF Final Energy:   -54.40081429225706

   => Energetics <=

    Nuclear Repulsion Energy =              0.0000000000000000
    One-Electron Energy =                 -73.9504256582433896
    Two-Electron Energy =                  19.5496113659863298
    Total Energy =                        -54.4008142922570599

Computation Completed


Properties will be evaluated at   0.000000,   0.000000,   0.000000 [a0]

Properties computed using the SCF density matrix


 Multipole Moments:

 ------------------------------------------------------------------------------------
     Multipole            Electronic (a.u.)      Nuclear  (a.u.)        Total (a.u.)
 ------------------------------------------------------------------------------------

 L = 1.  Multiply by 2.5417464519 to convert [e a0] to [Debye]
 Dipole X            :          0.0000000            0.0000000            0.0000000
 Dipole Y            :          0.0000000            0.0000000            0.0000000
 Dipole Z            :          0.0000000            0.0000000            0.0000000
 Magnitude           :                                                    0.0000000

 ------------------------------------------------------------------------------------

*** tstop() called on nh043 at Fri Jun  6 00:13:29 2025
Module time:
	user time   =      11.81 seconds =       0.20 minutes
	system time =       0.25 seconds =       0.00 minutes
	total time  =          1 seconds =       0.02 minutes
Total time:
	user time   =      11.81 seconds =       0.20 minutes
	system time =       0.25 seconds =       0.00 minutes
	total time  =          1 seconds =       0.02 minutes
 MINTS: Wrapper to libmints.
   by Justin Turney

   Calculation information:
      Number of threads:                40
      Number of atoms:                   1
      Number of AO shells:              17
      Number of SO shells:              17
      Number of primitives:             29
      Number of atomic orbitals:        72
      Number of basis functions:        57

      Number of irreps:                  8
      Integral cutoff                 1.00e-12
      Number of functions per irrep: [  16    5    5    5    2    8    8    8 ]

 OEINTS: Overlap, kinetic, potential, dipole, and quadrupole integrals
         stored in file 35.

      Computing two-electron integrals...done
      Computed 128567 non-zero two-electron integrals.
        Stored in file 33.


*** tstart() called on nh043
*** at Fri Jun  6 00:13:29 2025


	Wfn Parameters:
	--------------------
	Wavefunction         = CCSD
	Number of irreps     = 8
	Number of MOs        = 57
	Number of active MOs = 57
	AO-Basis             = NONE
	Semicanonical        = false
	Reference            = ROHF
	Print Level          = 1

	IRREP	# MOs	# FZDC	# DOCC	# SOCC	# VIRT	# FZVR
	-----	-----	------	------	------	------	------
	 Ag	   16	    0	    2	    0	    14	    0
	 B1g	   5	    0	    0	    0	    5	    0
	 B2g	   5	    0	    0	    0	    5	    0
	 B3g	   5	    0	    0	    0	    5	    0
	 Au	   2	    0	    0	    0	    2	    0
	 B1u	   8	    0	    0	    1	    7	    0
	 B2u	   8	    0	    0	    1	    7	    0
	 B3u	   8	    0	    0	    1	    7	    0
	Transforming integrals...
	IWL integrals will be deleted.
	(OO|OO)...
	Presorting SO-basis two-electron integrals.
	Sorting File: SO Ints (nn|nn) nbuckets = 1
	Constructing frozen core operators
	Starting first half-transformation.
	Sorting half-transformed integrals.
	First half integral transformation complete.
	Starting second half-transformation.
	Two-electron integral transformation complete.
	(OO|OV)...
	Starting second half-transformation.
	Two-electron integral transformation complete.
	(OO|VV)...
	Starting second half-transformation.
	Two-electron integral transformation complete.
	(OV|OO)...
	Starting first half-transformation.
	Sorting half-transformed integrals.
	First half integral transformation complete.
	Starting second half-transformation.
	Two-electron integral transformation complete.
	(OV|OV)...
	Starting second half-transformation.
	Two-electron integral transformation complete.
	(OV|VV)...
	Starting second half-transformation.
	Two-electron integral transformation complete.
	(VV|OO)...
	Starting first half-transformation.
	Sorting half-transformed integrals.
	First half integral transformation complete.
	Starting second half-transformation.
	Two-electron integral transformation complete.
	(VV|OV)...
	Starting second half-transformation.
	Two-electron integral transformation complete.
	(VV|VV)...
	Starting second half-transformation.
	Two-electron integral transformation complete.
	Frozen core energy     =      0.00000000000000

	Size of irrep 0 of <ab|cd> integrals:      0.218 (MW) /      1.745 (MB)
	Size of irrep 1 of <ab|cd> integrals:      0.122 (MW) /      0.980 (MB)
	Size of irrep 2 of <ab|cd> integrals:      0.122 (MW) /      0.980 (MB)
	Size of irrep 3 of <ab|cd> integrals:      0.122 (MW) /      0.980 (MB)
	Size of irrep 4 of <ab|cd> integrals:      0.088 (MW) /      0.701 (MB)
	Size of irrep 5 of <ab|cd> integrals:      0.163 (MW) /      1.306 (MB)
	Size of irrep 6 of <ab|cd> integrals:      0.163 (MW) /      1.306 (MB)
	Size of irrep 7 of <ab|cd> integrals:      0.163 (MW) /      1.306 (MB)
	Total:                                     1.163 (MW) /      9.303 (MB)

	Size of irrep 0 of <ia|bc> integrals:      0.024 (MW) /      0.194 (MB)
	Size of irrep 1 of <ia|bc> integrals:      0.010 (MW) /      0.078 (MB)
	Size of irrep 2 of <ia|bc> integrals:      0.010 (MW) /      0.078 (MB)
	Size of irrep 3 of <ia|bc> integrals:      0.010 (MW) /      0.078 (MB)
	Size of irrep 4 of <ia|bc> integrals:      0.006 (MW) /      0.045 (MB)
	Size of irrep 5 of <ia|bc> integrals:      0.016 (MW) /      0.129 (MB)
	Size of irrep 6 of <ia|bc> integrals:      0.016 (MW) /      0.129 (MB)
	Size of irrep 7 of <ia|bc> integrals:      0.016 (MW) /      0.129 (MB)
	Total:                                     0.108 (MW) /      0.862 (MB)

	Size of irrep 0 of tIjAb amplitudes:       0.003 (MW) /      0.026 (MB)
	Size of irrep 1 of tIjAb amplitudes:       0.001 (MW) /      0.006 (MB)
	Size of irrep 2 of tIjAb amplitudes:       0.001 (MW) /      0.006 (MB)
	Size of irrep 3 of tIjAb amplitudes:       0.001 (MW) /      0.006 (MB)
	Size of irrep 4 of tIjAb amplitudes:       0.000 (MW) /      0.000 (MB)
	Size of irrep 5 of tIjAb amplitudes:       0.002 (MW) /      0.013 (MB)
	Size of irrep 6 of tIjAb amplitudes:       0.002 (MW) /      0.013 (MB)
	Size of irrep 7 of tIjAb amplitudes:       0.002 (MW) /      0.013 (MB)
	Total:                                     0.010 (MW) /      0.082 (MB)

	Nuclear Rep. energy          =      0.00000000000000
	SCF energy                   =    -54.40081429225706
	One-electron energy          =    -73.95042565824221
	Two-electron (AA) energy     =      7.04694369155419
	Two-electron (BB) energy     =      0.90628015033467
	Two-electron (AB) energy     =     11.59638752409628
	Two-electron energy          =    -54.40081429225707
	Reference energy             =    -54.40081429225707

*** tstop() called on nh043 at Fri Jun  6 00:13:29 2025
Module time:
	user time   =       0.08 seconds =       0.00 minutes
	system time =       0.04 seconds =       0.00 minutes
	total time  =          0 seconds =       0.00 minutes
Total time:
	user time   =      12.40 seconds =       0.21 minutes
	system time =       0.45 seconds =       0.01 minutes
	total time  =          1 seconds =       0.02 minutes
            **************************
            *                        *
            *        CCENERGY        *
            *                        *
            **************************

    Nuclear Rep. energy (wfn)     =    0.000000000000000
    SCF energy          (wfn)     =  -54.400814292257060
    Reference energy    (file100) =  -54.400814292257067

    Input parameters:
    -----------------
    Wave function   =     CCSD
    Reference wfn   =     ROHF
    Brueckner       =     No
    Memory (Mbytes) =     100000.0
    Maxiter         =     50
    R_Convergence   =     1.0e-07
    E_Convergence   =     1.0e-08
    Restart         =     Yes
    DIIS            =     Yes
    AO Basis        =     NONE
    ABCD            =     NEW
    Cache Level     =     2
    Cache Type      =     LOW
    Print Level     =     1
    Num. of threads =     40
    # Amps to Print =     10
    Print MP2 Amps? =     No
    Analyze T2 Amps =     No
    Print Pair Ener =     No
    Local CC        =     No
    SCS-MP2         =     False
    SCSN-MP2        =     False
    SCS-CCSD        =     False

                Solving CC Amplitude Equations
                ------------------------------
  Iter             Energy              RMS        T1Diag      D1Diag    New D1Diag    D2Diag
  ----     ---------------------    ---------   ----------  ----------  ----------   --------
     0        -0.129094132490295    0.000e+00    0.001277    0.003379    0.003379    0.000000
     1        -0.141414447110154    2.899e-02    0.002220    0.003573    0.003573    0.000000
     2        -0.144535569529963    8.587e-03    0.002809    0.004717    0.004717    0.000000
     3        -0.144617189579426    1.688e-03    0.002954    0.004977    0.004977    0.000000
     4        -0.144619592056451    5.069e-04    0.003000    0.005062    0.005062    0.000000
     5        -0.144618638516834    1.452e-04    0.003005    0.005074    0.005074    0.000000
     6        -0.144619960058294    3.033e-05    0.003006    0.005081    0.005081    0.000000
     7        -0.144619783547229    6.702e-06    0.003006    0.005083    0.005083    0.000000
     8        -0.144619734327675    1.036e-06    0.003006    0.005083    0.005083    0.000000
     9        -0.144619743282938    1.732e-07    0.003006    0.005084    0.005084    0.000000
    10        -0.144619742381046    2.694e-08    0.003006    0.005084    0.005084    0.000000

    Iterations converged.


    Largest TIA Amplitudes:
              1   0         0.0260804780
              1   3         0.0100644714
              2  32         0.0037396079
              3  40         0.0037396079
              4  48         0.0037396079
              2  31        -0.0024904436
              3  39        -0.0024904436
              4  47        -0.0024904436
              2  35         0.0020832508
              3  43         0.0020832508

    Largest Tia Amplitudes:
              1   0        -0.0347187133
              1   3        -0.0048540342
              1  11         0.0012584177
              0   3         0.0007895449
              0   0         0.0007068540
              0  11         0.0005327322
              0  12         0.0002524410
              1  12         0.0002008806
              0  13         0.0000692349
              1  13         0.0000222701

    Largest TIJAB Amplitudes:
      4   3  48  40        -0.0189232058
      4   2  48  32        -0.0189232058
      3   2  40  32        -0.0189232058
      3   2  24   2        -0.0188345174
      4   3  47  39        -0.0173390330
      4   2  47  31        -0.0173390330
      3   2  39  31        -0.0173390330
      4   2  19   1        -0.0173310045
      4   3  47  40        -0.0161605081
      4   3  48  39        -0.0161605081

    Largest Tijab Amplitudes:
      1   0  38  35         0.0018861274
      1   0  46  43         0.0018861274
      1   0  54  51         0.0018861274
      1   0  35  32        -0.0008826237
      1   0  43  40        -0.0008826237
      1   0  51  48        -0.0008826237
      1   0  35  31        -0.0005345607
      1   0  43  39        -0.0005345607
      1   0  51  47        -0.0005345607
      1   0  38  32         0.0005057941

    Largest TIjAb Amplitudes:
      4   1   1  54        -0.0398288045
      3   1   2  46        -0.0366493697
      2   1  19  54         0.0346944260
      2   1  24  46         0.0346944260
      3   1  14  54         0.0346944260
      3   1  24  38         0.0346944260
      4   1  14  46         0.0346944260
      4   1  19  38         0.0346944260
      2   1   2  38         0.0323361434
      4   1   4  54         0.0247933852

    SCF energy       (wfn)                    =  -54.400814292257060
    Reference energy (file100)                =  -54.400814292257067

    Opposite-spin CCSD correlation energy     =   -0.105795460619397
    Same-spin CCSD correlation energy         =   -0.036213090629177
    Singles CCSD correlation energy           =   -0.002611191132472
    CCSD correlation energy                   =   -0.144619742381046
      * CCSD total energy                     =  -54.545434034638113


			**************************
			*                        *
			*         CCHBAR         *
			*                        *
			**************************


			**************************
			*        CCLAMBDA        *
			**************************


	Nuclear Rep. energy (wfn)     =    0.000000000000000
	Reference           (wfn)     =                    1
	SCF energy          (wfn)     =  -54.400814292257060
	Reference energy    (CC_INFO) =  -54.400814292257067
	CCSD energy         (CC_INFO) =   -0.144619742381046
	Total CCSD energy   (CC_INFO) =  -54.545434034638113

	Input parameters:
	-----------------
	Maxiter           =     50
	Convergence       = 1.0e-07
	Restart           =     No
	Cache Level       =     2
	Model III         =     No
	DIIS              =     Yes
	AO Basis          =     No
	ABCD              =     NEW
	Local CC          =     No
	Parameters for left-handed eigenvectors:
	    Irr   Root  Ground-State?    EOM energy        R0
	  1   0     0        Yes       0.0000000000   1.0000000000
	Labels for eigenvector 1:
	LIA 0 -1, Lia 0 -1, LIJAB 0 -1, Lijab 0 -1, LIjAb 0 -1, 2LIjAb - LIjbA 0 -1
	Deleting old CC_LAMBDA data.
	Symmetry of left-hand state: Au
	Symmetry of left-hand eigenvector: Ag

	          Solving Lambda Equations
	          ------------------------
	Iter     PseudoEnergy or Norm         RMS  
	----     ---------------------     --------
	   0        -0.141939705937025    0.000e+00
	   1        -0.138877786619734    5.478e-03
	   2        -0.138479165659417    1.387e-03
	   3        -0.138383720496608    5.248e-04
	   4        -0.138387280007225    1.407e-04
	   5        -0.138387991507734    4.078e-05
	   6        -0.138387355471061    8.850e-06
	   7        -0.138387357394737    1.956e-06
	   8        -0.138387358535407    3.872e-07
	   9        -0.138387355011767    4.374e-08

	Largest LIA Amplitudes:
	          1   0         0.0281647877
	          1   3         0.0104662763
	          2  32         0.0042193476
	          3  40         0.0042193476
	          4  48         0.0042193476
	          0   3        -0.0020093556
	          2  35         0.0018245147
	          3  43         0.0018245147
	          4  51         0.0018245147
	          0  11        -0.0013044029

	Largest Lia Amplitudes:
	          1   0        -0.0342111011
	          1   3        -0.0055896484
	          1  11         0.0010316826
	          0   3         0.0007530255
	          0   0         0.0006616319
	          0  11         0.0004932481
	          0  12         0.0002364499
	          1  12         0.0001930144
	          0  13         0.0000687607
	          1  13         0.0000213476

	Largest LIJAB Amplitudes:
	  4   3  48  40        -0.0185028275
	  4   2  48  32        -0.0185028275
	  3   2  40  32        -0.0185028275
	  3   2  24   2        -0.0184594501
	  4   2  19   1        -0.0169858779
	  4   3  47  39        -0.0167823675
	  4   2  47  31        -0.0167823675
	  3   2  39  31        -0.0167823675
	  4   3  47  40        -0.0157316274
	  4   3  48  39        -0.0157316274

	Largest Lijab Amplitudes:
	  1   0  38  35         0.0018409227
	  1   0  46  43         0.0018409227
	  1   0  54  51         0.0018409227
	  1   0  35  32        -0.0008566753
	  1   0  43  40        -0.0008566753
	  1   0  51  48        -0.0008566753
	  1   0  35  31        -0.0005202979
	  1   0  43  39        -0.0005202979
	  1   0  51  47        -0.0005202979
	  1   0  38  32         0.0004967967

	Largest LIjAb Amplitudes:
	  4   1   1  54        -0.0384701865
	  3   1   2  46        -0.0353992068
	  2   1  19  54         0.0335109490
	  2   1  24  46         0.0335109490
	  3   1  14  54         0.0335109490
	  3   1  24  38         0.0335109490
	  4   1  14  46         0.0335109490
	  4   1  19  38         0.0335109490
	  2   1   2  38         0.0312331109
	  4   1   4  54         0.0239602064

	Iterations converged.

	Overlap <L|e^T> =        0.96131820932

			**************************
			*                        *
			*        CCDENSITY       *
			*                        *
			**************************


	Input parameters:
	-----------------
	Wave function    =   CCSD
	Reference wfn    =  ROHF
	Dertype          = 0
	Tolerance        = 1.0e-14
	Cache Level      = 2
	AO Basis         = No
	OPDM Only        = Yes
	Relax OPDM       = No
	Compute Xi       = No
	Use Zeta         = No
	Xi connected     = Yes
	Compute NO       = No

	Nuclear Rep. energy (wfn)     =    0.000000000000000
	SCF energy          (wfn)     =  -54.400814292257060
	Reference energy    (file100) =  -54.400814292257067
	CCSD energy         (CC_INFO) =   -0.144619742381046
	Total CCSD energy   (CC_INFO) =  -54.545434034638113
	Number of States = 1

	Ground?  State     EOM Energy       R0
	  Yes     0 Ag    0.0000000000   1.00000000


Properties will be evaluated at   0.000000,   0.000000,   0.000000 [a0]

Properties computed using the CCSD density matrix

  Natural Orbital Occupations:

  Alpha Occupations:
  HONO-2 :    1B3u    0.987
  HONO-1 :    1B1u    0.987
  HONO-0 :    1B2u    0.987
  LUNO+0 :    2B3u    0.005
  LUNO+1 :    2B2u    0.005
  LUNO+2 :    2B1u    0.005
  LUNO+3 :    3 Ag    0.005

  Beta Occupations:
  HONO-1 :    1 Ag    1.000
  HONO-0 :    2 Ag    0.973
  LUNO+0 :    1B1u    0.007
  LUNO+1 :    1B3u    0.007
  LUNO+2 :    1B2u    0.007
  LUNO+3 :    3 Ag    0.004

  Total Occupations:
  HONO-1 :    1 Ag    1.999
  HONO-0 :    2 Ag    1.965
  LUNO+0 :    1B3u    0.993
  LUNO+1 :    1B2u    0.993
  LUNO+2 :    1B1u    0.993
  LUNO+3 :    3 Ag    0.010


    Psi4 stopped on: Friday, 06 June 2025 12:13AM
    Psi4 wall time for execution: 0:00:02.79

*** Psi4 exiting successfully. Buy a developer a beer!
