
    -----------------------------------------------------------------------
          Psi4: An Open-Source Ab Initio Electronic Structure Package
                               Psi4 1.9.1 release

                         Git: Rev {} zzzzzzz 


    D. G. A. Smith, L. A. Burns, A. C. Simmonett, R. M. Parrish,
    M. C. Schieber, R. Galvelis, P. Kraus, H. Kruse, R. Di Remigio,
    A. Alenaizan, A. M. James, S. Lehtola, J. P. Misiewicz, M. Scheurer,
    R. A. Shaw, J. B. Schriber, Y. Xie, Z. L. Glick, D. A. Sirianni,
    J. S. O'Brien, J. M. Waldrop, A. Kumar, E. G. Hohenstein,
    B. P. Pritchard, B. R. Brooks, H. F. Schaefer III, A. Yu. Sokolov,
    K. Patkowski, A. E. DePrince III, U. Bozkaya, R. A. King,
    F. A. Evangelista, J. M. Turney, T. D. Crawford, C. D. Sherrill,
    J. Chem. Phys. 152(18) 184108 (2020). https://doi.org/10.1063/5.0006002

                            Additional Code Authors
    E. T. Seidl, C. L. Janssen, E. F. Valeev, M. L. Leininger,
    J. F. Gonthier, R. M. Richard, H. R. McAlexander, M. Saitow, X. Wang,
    P. Verma, M. H. Lechner, A. Jiang, S. Behnle, A. G. Heide,
    M. F. Herbst, and D. L. Poole

             Previous Authors, Complete List of Code Contributors,
                       and Citations for Specific Modules
    https://github.com/psi4/psi4/blob/master/codemeta.json
    https://github.com/psi4/psi4/graphs/contributors
    http://psicode.org/psi4manual/master/introduction.html#citing-psifour

    -----------------------------------------------------------------------


    Psi4 started on: Friday, 06 June 2025 12:13AM

    Process ID: 2932126
    Host:       nh045
    PSIDATADIR: /software-nas/eb2024/easybuild/software/rocky/8.9/intel/cascadelake/software/PSI4/1.9.1-foss-2023b/share/psi4
    Memory:     500.0 MiB
    Threads:    40
    
  ==> Input File <==

--------------------------------------------------------------------------
memory 100Gb

molecule{
0 3
Si     0.000000  0.000000  0.000000
}

set reference rohf

properties("CCSD/def2-QZVP", properties=["NO_OCCUPATIONS"])
--------------------------------------------------------------------------

  Memory set to  93.132 GiB by Python driver.
   => Libint2 <=

    Primary   basis highest AM E, G, H:  5, 4, 3
    Auxiliary basis highest AM E, G, H:  6, 5, 4
    Onebody   basis highest AM E, G, H:  6, 5, 4
    Solid Harmonics ordering:            Gaussian

*** tstart() called on nh045
*** at Fri Jun  6 00:13:27 2025

   => Loading Basis Set <=

    Name: DEF2-QZVP
    Role: ORBITAL
    Keyword: BASIS
    atoms 1 entry SI         line   614 file /software-nas/eb2024/easybuild/software/rocky/8.9/intel/cascadelake/software/PSI4/1.9.1-foss-2023b/share/psi4/basis/def2-qzvp.gbs 


         ---------------------------------------------------------
                                   SCF
               by Justin Turney, Rob Parrish, Andy Simmonett
                          and Daniel G. A. Smith
                             ROHF Reference
                       40 Threads,  95367 MiB Core
         ---------------------------------------------------------

  ==> Geometry <==

    Molecular point group: d2h
    Geometry (in Angstrom), charge = 0, multiplicity = 3:

       Center              X                  Y                   Z               Mass       
    ------------   -----------------  -----------------  -----------------  -----------------
         SI           0.000000000000     0.000000000000     0.000000000000    27.976926534650

  Running in d2h symmetry.

  Rotational constants: A = ************  B = ************  C = ************ [cm^-1]
  Rotational constants: A = ************  B = ************  C = ************ [MHz]
  Nuclear repulsion =    0.000000000000000

  Charge       = 0
  Multiplicity = 3
  Electrons    = 14
  Nalpha       = 8
  Nbeta        = 6

  ==> Algorithm <==

  SCF Algorithm Type is PK.
  DIIS enabled.
  MOM disabled.
  Fractional occupation disabled.
  Guess Type is CORE.
  Energy threshold   = 1.00e-10
  Density threshold  = 1.00e-10
  Integral threshold = 1.00e-12

  ==> Primary Basis <==

  Basis Set: DEF2-QZVP
    Blend: DEF2-QZVP
    Number of shells: 22
    Number of basis functions: 70
    Number of Cartesian functions: 86
    Spherical Harmonics?: true
    Max angular momentum: 4

  ==> Integral Setup <==

  Using in-core PK algorithm.
   Calculation information:
      Number of atoms:                   1
      Number of AO shells:              22
      Number of primitives:             41
      Number of atomic orbitals:        86
      Number of basis functions:        70

      Integral cutoff                 1.00e-12
      Number of threads:                40

  Performing in-core PK
  Using 6177710 doubles for integral storage.
  We computed 183167 shell quartets total.
  Whereas there are 32131 unique shell quartets.
   470.06 percent of shell quartets recomputed by reordering.

  ==> DiskJK: Disk-Based J/K Matrices <==

    J tasked:                  Yes
    K tasked:                  Yes
    wK tasked:                  No
    Memory [MiB]:            71525
    Schwarz Cutoff:          1E-12

    OpenMP threads:             40

  Minimum eigenvalue in the overlap matrix is 2.7006735054E-03.
  Reciprocal condition number of the overlap matrix is 6.0704732241E-04.
    Using symmetric orthogonalization.

  ==> Pre-Iterations <==

  SCF Guess: Core (One-Electron) Hamiltonian.

   -------------------------------------------------------
    Irrep   Nso     Nmo     Nalpha   Nbeta   Ndocc  Nsocc
   -------------------------------------------------------
     Ag        20      20       3       3       3       0
     B1g        6       6       0       0       0       0
     B2g        6       6       0       0       0       0
     B3g        6       6       0       0       0       0
     Au         2       2       0       0       0       0
     B1u       10      10       2       1       1       1
     B2u       10      10       1       1       1       0
     B3u       10      10       2       1       1       1
   -------------------------------------------------------
    Total      70      70       8       6       6       2
   -------------------------------------------------------

  ==> Iterations <==

                        Total Energy        Delta E     RMS |[F,P]|

    Occupation by irrep:
             Ag   B1g   B2g   B3g    Au   B1u   B2u   B3u 
    DOCC [     3,    0,    0,    0,    0,    1,    1,    1 ]
    SOCC [     0,    0,    0,    0,    0,    1,    1,    0 ]
    NA   [     3,    0,    0,    0,    0,    2,    2,    1 ]
    NB   [     3,    0,    0,    0,    0,    1,    1,    1 ]

   @ROHF iter   1:  -259.49128375985288   -2.59491e+02   4.79085e-01 DIIS
   @ROHF iter   2:  -278.68100580820510   -1.91897e+01   2.09139e-01 DIIS
   @ROHF iter   3:  -288.36611295255307   -9.68511e+00   4.98149e-02 DIIS
   @ROHF iter   4:  -288.84808708506569   -4.81974e-01   3.19121e-03 DIIS
   @ROHF iter   5:  -288.85423892599550   -6.15184e-03   5.10157e-04 DIIS
   @ROHF iter   6:  -288.85434396516439   -1.05039e-04   6.97579e-05 DIIS
   @ROHF iter   7:  -288.85434958039627   -5.61523e-06   1.49902e-05 DIIS
   @ROHF iter   8:  -288.85434979724198   -2.16846e-07   1.94001e-06 DIIS
   @ROHF iter   9:  -288.85434980537525   -8.13327e-09   2.47704e-07 DIIS
   @ROHF iter  10:  -288.85434980545165   -7.63976e-11   1.31021e-08 DIIS
   @ROHF iter  11:  -288.85434980545187   -2.27374e-13   5.66194e-10 DIIS
   @ROHF iter  12:  -288.85434980545193   -5.68434e-14   8.04688e-11 DIIS
  Energy and wave function converged.


  ==> Post-Iterations <==

    Orbital Energies [Eh]
    ---------------------

    Doubly Occupied:                                                      

       1Ag   -68.812342     2Ag    -6.156436     1B3u   -4.256896  
       1B2u   -4.255481     1B1u   -4.255481     3Ag    -0.539806  

    Singly Occupied:                                                      

       2B1u   -0.109090     2B2u   -0.109090  

    Virtual:                                                              

       2B3u    0.002567     4Ag     0.188711     3B2u    0.194603  
       3B1u    0.194603     3B3u    0.204514     5Ag     0.267339  
       1B1g    0.268759     1B2g    0.268759     6Ag     0.274210  
       1B3g    0.274210     7Ag     0.764512     2B1g    0.768725  
       2B2g    0.768725     8Ag     0.781870     2B3g    0.781870  
       4B3u    0.783172     4B2u    0.786013     4B1u    0.786013  
       5B3u    0.794814     1Au     0.794814     5B2u    0.808561  
       5B1u    0.808561     6B3u    0.855704     6B2u    0.868081  
       6B1u    0.868081     9Ag     1.041399    10Ag     1.883068  
       3B1g    1.889517     3B2g    1.889517    11Ag     1.910146  
       3B3g    1.910146    12Ag     2.210032     4B1g    2.212436  
       4B2g    2.212436    13Ag     2.219677     4B3g    2.219677  
       5B1g    2.231838     5B2g    2.231838     5B3g    2.249070  
      14Ag     2.249070     7B3u    2.255508     7B2u    2.259165  
       7B1u    2.259165     8B3u    2.270292     2Au     2.270292  
       8B1u    2.289017     8B2u    2.289017     9B3u    3.018800  
       9B2u    3.040794     9B1u    3.040794    15Ag     4.460887  
      16Ag     6.033412     6B1g    6.038099     6B2g    6.038099  
      17Ag     6.052462     6B3g    6.052462    10B3u   11.782325  
      10B2u   11.795630    10B1u   11.795630    18Ag    16.435115  
      19Ag    58.616629    20Ag   318.514681  

    Final Occupation by Irrep:
             Ag   B1g   B2g   B3g    Au   B1u   B2u   B3u 
    DOCC [     3,    0,    0,    0,    0,    1,    1,    1 ]
    SOCC [     0,    0,    0,    0,    0,    1,    1,    0 ]
    NA   [     3,    0,    0,    0,    0,    2,    2,    1 ]
    NB   [     3,    0,    0,    0,    0,    1,    1,    1 ]

  @ROHF Final Energy:  -288.85434980545193

   => Energetics <=

    Nuclear Repulsion Energy =              0.0000000000000000
    One-Electron Energy =                -400.5613859921692210
    Two-Electron Energy =                 111.7070361867172892
    Total Energy =                       -288.8543498054519318

Computation Completed


Properties will be evaluated at   0.000000,   0.000000,   0.000000 [a0]

Properties computed using the SCF density matrix


 Multipole Moments:

 ------------------------------------------------------------------------------------
     Multipole            Electronic (a.u.)      Nuclear  (a.u.)        Total (a.u.)
 ------------------------------------------------------------------------------------

 L = 1.  Multiply by 2.5417464519 to convert [e a0] to [Debye]
 Dipole X            :          0.0000000            0.0000000            0.0000000
 Dipole Y            :          0.0000000            0.0000000            0.0000000
 Dipole Z            :          0.0000000            0.0000000            0.0000000
 Magnitude           :                                                    0.0000000

 ------------------------------------------------------------------------------------

*** tstop() called on nh045 at Fri Jun  6 00:13:29 2025
Module time:
	user time   =      16.03 seconds =       0.27 minutes
	system time =       0.48 seconds =       0.01 minutes
	total time  =          2 seconds =       0.03 minutes
Total time:
	user time   =      16.03 seconds =       0.27 minutes
	system time =       0.48 seconds =       0.01 minutes
	total time  =          2 seconds =       0.03 minutes
 MINTS: Wrapper to libmints.
   by Justin Turney

   Calculation information:
      Number of threads:                40
      Number of atoms:                   1
      Number of AO shells:              22
      Number of SO shells:              22
      Number of primitives:             41
      Number of atomic orbitals:        86
      Number of basis functions:        70

      Number of irreps:                  8
      Integral cutoff                 1.00e-12
      Number of functions per irrep: [  20    6    6    6    2   10   10   10 ]

 OEINTS: Overlap, kinetic, potential, dipole, and quadrupole integrals
         stored in file 35.

      Computing two-electron integrals...done
      Computed 295747 non-zero two-electron integrals.
        Stored in file 33.


*** tstart() called on nh045
*** at Fri Jun  6 00:13:30 2025


	Wfn Parameters:
	--------------------
	Wavefunction         = CCSD
	Number of irreps     = 8
	Number of MOs        = 70
	Number of active MOs = 70
	AO-Basis             = NONE
	Semicanonical        = false
	Reference            = ROHF
	Print Level          = 1

	IRREP	# MOs	# FZDC	# DOCC	# SOCC	# VIRT	# FZVR
	-----	-----	------	------	------	------	------
	 Ag	   20	    0	    3	    0	    17	    0
	 B1g	   6	    0	    0	    0	    6	    0
	 B2g	   6	    0	    0	    0	    6	    0
	 B3g	   6	    0	    0	    0	    6	    0
	 Au	   2	    0	    0	    0	    2	    0
	 B1u	   10	    0	    1	    1	    8	    0
	 B2u	   10	    0	    1	    1	    8	    0
	 B3u	   10	    0	    1	    0	    9	    0
	Transforming integrals...
	IWL integrals will be deleted.
	(OO|OO)...
	Presorting SO-basis two-electron integrals.
	Sorting File: SO Ints (nn|nn) nbuckets = 1
	Constructing frozen core operators
	Starting first half-transformation.
	Sorting half-transformed integrals.
	First half integral transformation complete.
	Starting second half-transformation.
	Two-electron integral transformation complete.
	(OO|OV)...
	Starting second half-transformation.
	Two-electron integral transformation complete.
	(OO|VV)...
	Starting second half-transformation.
	Two-electron integral transformation complete.
	(OV|OO)...
	Starting first half-transformation.
	Sorting half-transformed integrals.
	First half integral transformation complete.
	Starting second half-transformation.
	Two-electron integral transformation complete.
	(OV|OV)...
	Starting second half-transformation.
	Two-electron integral transformation complete.
	(OV|VV)...
	Starting second half-transformation.
	Two-electron integral transformation complete.
	(VV|OO)...
	Starting first half-transformation.
	Sorting half-transformed integrals.
	First half integral transformation complete.
	Starting second half-transformation.
	Two-electron integral transformation complete.
	(VV|OV)...
	Starting second half-transformation.
	Two-electron integral transformation complete.
	(VV|VV)...
	Starting second half-transformation.
	Two-electron integral transformation complete.
	Frozen core energy     =      0.00000000000000

	Size of irrep 0 of <ab|cd> integrals:      0.415 (MW) /      3.318 (MB)
	Size of irrep 1 of <ab|cd> integrals:      0.225 (MW) /      1.797 (MB)
	Size of irrep 2 of <ab|cd> integrals:      0.225 (MW) /      1.797 (MB)
	Size of irrep 3 of <ab|cd> integrals:      0.225 (MW) /      1.797 (MB)
	Size of irrep 4 of <ab|cd> integrals:      0.154 (MW) /      1.229 (MB)
	Size of irrep 5 of <ab|cd> integrals:      0.298 (MW) /      2.385 (MB)
	Size of irrep 6 of <ab|cd> integrals:      0.298 (MW) /      2.385 (MB)
	Size of irrep 7 of <ab|cd> integrals:      0.298 (MW) /      2.385 (MB)
	Total:                                     2.137 (MW) /     17.094 (MB)

	Size of irrep 0 of <ia|bc> integrals:      0.062 (MW) /      0.495 (MB)
	Size of irrep 1 of <ia|bc> integrals:      0.023 (MW) /      0.186 (MB)
	Size of irrep 2 of <ia|bc> integrals:      0.023 (MW) /      0.186 (MB)
	Size of irrep 3 of <ia|bc> integrals:      0.027 (MW) /      0.212 (MB)
	Size of irrep 4 of <ia|bc> integrals:      0.014 (MW) /      0.113 (MB)
	Size of irrep 5 of <ia|bc> integrals:      0.043 (MW) /      0.345 (MB)
	Size of irrep 6 of <ia|bc> integrals:      0.043 (MW) /      0.345 (MB)
	Size of irrep 7 of <ia|bc> integrals:      0.037 (MW) /      0.297 (MB)
	Total:                                     0.272 (MW) /      2.179 (MB)

	Size of irrep 0 of tIjAb amplitudes:       0.012 (MW) /      0.093 (MB)
	Size of irrep 1 of tIjAb amplitudes:       0.002 (MW) /      0.015 (MB)
	Size of irrep 2 of tIjAb amplitudes:       0.002 (MW) /      0.015 (MB)
	Size of irrep 3 of tIjAb amplitudes:       0.004 (MW) /      0.030 (MB)
	Size of irrep 4 of tIjAb amplitudes:       0.000 (MW) /      0.000 (MB)
	Size of irrep 5 of tIjAb amplitudes:       0.007 (MW) /      0.052 (MB)
	Size of irrep 6 of tIjAb amplitudes:       0.007 (MW) /      0.052 (MB)
	Size of irrep 7 of tIjAb amplitudes:       0.003 (MW) /      0.026 (MB)
	Total:                                     0.036 (MW) /      0.284 (MB)

	Nuclear Rep. energy          =      0.00000000000000
	SCF energy                   =   -288.85434980545193
	One-electron energy          =   -400.56138599147243
	Two-electron (AA) energy     =     25.68930528867919
	Two-electron (BB) energy     =     20.35347761210576
	Two-electron (AB) energy     =     65.66425328523556
	Two-electron energy          =   -288.85434980545199
	Reference energy             =   -288.85434980545199

*** tstop() called on nh045 at Fri Jun  6 00:13:30 2025
Module time:
	user time   =       0.14 seconds =       0.00 minutes
	system time =       0.08 seconds =       0.00 minutes
	total time  =          0 seconds =       0.00 minutes
Total time:
	user time   =      16.89 seconds =       0.28 minutes
	system time =       0.91 seconds =       0.02 minutes
	total time  =          3 seconds =       0.05 minutes
            **************************
            *                        *
            *        CCENERGY        *
            *                        *
            **************************

    Nuclear Rep. energy (wfn)     =    0.000000000000000
    SCF energy          (wfn)     = -288.854349805451932
    Reference energy    (file100) = -288.854349805451989

    Input parameters:
    -----------------
    Wave function   =     CCSD
    Reference wfn   =     ROHF
    Brueckner       =     No
    Memory (Mbytes) =     100000.0
    Maxiter         =     50
    R_Convergence   =     1.0e-07
    E_Convergence   =     1.0e-08
    Restart         =     Yes
    DIIS            =     Yes
    AO Basis        =     NONE
    ABCD            =     NEW
    Cache Level     =     2
    Cache Type      =     LOW
    Print Level     =     1
    Num. of threads =     40
    # Amps to Print =     10
    Print MP2 Amps? =     No
    Analyze T2 Amps =     No
    Print Pair Ener =     No
    Local CC        =     No
    SCS-MP2         =     False
    SCSN-MP2        =     False
    SCS-CCSD        =     False

                Solving CC Amplitude Equations
                ------------------------------
  Iter             Energy              RMS        T1Diag      D1Diag    New D1Diag    D2Diag
  ----     ---------------------    ---------   ----------  ----------  ----------   --------
     0        -0.264473352773421    0.000e+00    0.000675    0.002525    0.002525    0.000000
     1        -0.273863823513502    5.048e-02    0.005107    0.015323    0.015323    0.000000
     2        -0.279157069343319    1.856e-02    0.006820    0.020772    0.020772    0.000000
     3        -0.279217663536569    4.994e-03    0.007333    0.022377    0.022377    0.000000
     4        -0.279289433303402    1.603e-03    0.007426    0.022710    0.022710    0.000000
     5        -0.279287766846259    2.997e-04    0.007430    0.022722    0.022722    0.000000
     6        -0.279290142920828    6.729e-05    0.007431    0.022724    0.022724    0.000000
     7        -0.279290142005850    1.947e-05    0.007431    0.022725    0.022725    0.000000
     8        -0.279290050758719    4.537e-06    0.007431    0.022726    0.022726    0.000000
     9        -0.279290040444040    1.033e-06    0.007431    0.022726    0.022726    0.000000
    10        -0.279290047514143    2.705e-07    0.007431    0.022726    0.022726    0.000000
    11        -0.279290043407793    7.817e-08    0.007431    0.022726    0.022726    0.000000

    Iterations converged.


    Largest TIA Amplitudes:
              2   1        -0.0194202940
              2   0         0.0180634180
              2   3         0.0159932297
              6  46         0.0123199214
              4  37         0.0123199210
              6  49         0.0067529784
              4  40         0.0067529782
              7  59        -0.0027003389
              3  40        -0.0021753279
              5  49        -0.0021753279

    Largest Tia Amplitudes:
              2   1         0.0501724481
              2   3        -0.0301391365
              2   5         0.0104680410
              2   0         0.0095403494
              5  52        -0.0033423045
              3  43        -0.0033423045
              3  40        -0.0031939273
              5  49        -0.0031939273
              3  45        -0.0025853535
              5  54        -0.0025853535

    Largest TIJAB Amplitudes:
      6   4  29   2        -0.0446503059
      6   4  46  37        -0.0224257345
      6   4  23  17         0.0221915091
      6   4  29   4        -0.0221294925
      6   4  30   2        -0.0221294925
      6   2  55  17         0.0200319471
      4   2  55  23         0.0200319471
      6   4  30   4        -0.0178167991
      4   2  37   0        -0.0146170604
      6   2  46   0        -0.0146170604

    Largest Tijab Amplitudes:
      5   3  34  13        -0.0073475595
      7   5  22  12        -0.0063728486
      7   3  28  12        -0.0063728486
      7   5  62  52        -0.0050396737
      7   3  62  43        -0.0050396737
      5   3  52  43        -0.0050192480
      7   5  63  53        -0.0045482644
      7   3  63  44        -0.0045482644
      5   3  53  44        -0.0045474630
      5   3  31  13        -0.0041787548

    Largest TIjAb Amplitudes:
      2   2  55  55        -0.0835952936
      4   2   2  45        -0.0520070039
      6   2  29  45        -0.0520070039
      4   2  29  54        -0.0520070038
      6   2   2  54         0.0520070038
      4   2  23  55        -0.0485256554
      6   2  17  55        -0.0485256554
      2   2  55  56        -0.0470682891
      2   2  56  55        -0.0466822571
      4   2   4  45        -0.0346241825

    SCF energy       (wfn)                    = -288.854349805451932
    Reference energy (file100)                = -288.854349805451989

    Opposite-spin CCSD correlation energy     =   -0.209056646147186
    Same-spin CCSD correlation energy         =   -0.067242207050800
    Singles CCSD correlation energy           =   -0.002991190209807
    CCSD correlation energy                   =   -0.279290043407793
      * CCSD total energy                     = -289.133639848859787


			**************************
			*                        *
			*         CCHBAR         *
			*                        *
			**************************


			**************************
			*        CCLAMBDA        *
			**************************


	Nuclear Rep. energy (wfn)     =    0.000000000000000
	Reference           (wfn)     =                    1
	SCF energy          (wfn)     = -288.854349805451932
	Reference energy    (CC_INFO) = -288.854349805451989
	CCSD energy         (CC_INFO) =   -0.279290043407793
	Total CCSD energy   (CC_INFO) = -289.133639848859787

	Input parameters:
	-----------------
	Maxiter           =     50
	Convergence       = 1.0e-07
	Restart           =     No
	Cache Level       =     2
	Model III         =     No
	DIIS              =     Yes
	AO Basis          =     No
	ABCD              =     NEW
	Local CC          =     No
	Parameters for left-handed eigenvectors:
	    Irr   Root  Ground-State?    EOM energy        R0
	  1   0     0        Yes       0.0000000000   1.0000000000
	Labels for eigenvector 1:
	LIA 0 -1, Lia 0 -1, LIJAB 0 -1, Lijab 0 -1, LIjAb 0 -1, 2LIjAb - LIjbA 0 -1
	Deleting old CC_LAMBDA data.
	Symmetry of left-hand state: B3g
	Symmetry of left-hand eigenvector: Ag

	          Solving Lambda Equations
	          ------------------------
	Iter     PseudoEnergy or Norm         RMS  
	----     ---------------------     --------
	   0        -0.276286318897701    0.000e+00
	   1        -0.271201999084208    1.287e-02
	   2        -0.270365386049970    3.972e-03
	   3        -0.270152663727132    1.338e-03
	   4        -0.270124941927458    4.525e-04
	   5        -0.270128324684771    1.194e-04
	   6        -0.270126414956929    2.816e-05
	   7        -0.270126418512984    7.614e-06
	   8        -0.270126400607553    2.005e-06
	   9        -0.270126409906868    4.454e-07
	  10        -0.270126407398477    1.080e-07
	  11        -0.270126408405720    2.793e-08

	Largest LIA Amplitudes:
	          2   1        -0.0244339695
	          2   3         0.0187202533
	          2   0         0.0162107527
	          6  46         0.0110927725
	          4  37         0.0110927721
	          6  49         0.0058856460
	          4  40         0.0058856459
	          7  59        -0.0020510320
	          7  55        -0.0017464071
	          3  40        -0.0016855044

	Largest Lia Amplitudes:
	          2   1         0.0475158305
	          2   3        -0.0288005082
	          2   5         0.0091017352
	          2   0         0.0070732836
	          5  52        -0.0027839250
	          3  43        -0.0027839250
	          3  40        -0.0026507827
	          5  49        -0.0026507827
	          2  11         0.0023033014
	          3  45        -0.0020558866

	Largest LIJAB Amplitudes:
	  6   4  29   2        -0.0434021834
	  6   4  29   4        -0.0215649362
	  6   4  30   2        -0.0215649362
	  6   4  46  37        -0.0214363450
	  6   4  23  17         0.0214189135
	  4   2  55  23         0.0185582163
	  6   2  55  17         0.0185582163
	  6   4  30   4        -0.0172683971
	  4   2  37   0        -0.0139249668
	  6   2  46   0        -0.0139249668

	Largest Lijab Amplitudes:
	  5   3  34  13        -0.0073241514
	  7   5  22  12        -0.0063533038
	  7   3  28  12        -0.0063533038
	  7   5  62  52        -0.0050332002
	  7   3  62  43        -0.0050332002
	  5   3  52  43        -0.0050127558
	  7   5  63  53        -0.0045477994
	  7   3  63  44        -0.0045477994
	  5   3  53  44        -0.0045464896
	  5   3  31  13        -0.0041677203

	Largest LIjAb Amplitudes:
	  2   2  55  55        -0.0778990962
	  4   2   2  45        -0.0483646042
	  6   2  29  45        -0.0483646042
	  4   2  29  54        -0.0483646042
	  6   2   2  54         0.0483646042
	  4   2  23  55        -0.0457796288
	  6   2  17  55        -0.0457796288
	  2   2  55  56        -0.0438189725
	  2   2  56  55        -0.0435319001
	  4   2   4  45        -0.0322382290

	Iterations converged.

	Overlap <L|e^T> =        0.92271024958

			**************************
			*                        *
			*        CCDENSITY       *
			*                        *
			**************************


	Input parameters:
	-----------------
	Wave function    =   CCSD
	Reference wfn    =  ROHF
	Dertype          = 0
	Tolerance        = 1.0e-14
	Cache Level      = 2
	AO Basis         = No
	OPDM Only        = Yes
	Relax OPDM       = No
	Compute Xi       = No
	Use Zeta         = No
	Xi connected     = Yes
	Compute NO       = No

	Nuclear Rep. energy (wfn)     =    0.000000000000000
	SCF energy          (wfn)     = -288.854349805451932
	Reference energy    (file100) = -288.854349805451989
	CCSD energy         (CC_INFO) =   -0.279290043407793
	Total CCSD energy   (CC_INFO) = -289.133639848859787
	Number of States = 1

	Ground?  State     EOM Energy       R0
	  Yes     0 Ag    0.0000000000   1.00000000


Properties will be evaluated at   0.000000,   0.000000,   0.000000 [a0]

Properties computed using the CCSD density matrix

  Natural Orbital Occupations:

  Alpha Occupations:
  HONO-2 :    3 Ag    0.978
  HONO-1 :    2B1u    0.975
  HONO-0 :    2B2u    0.975
  LUNO+0 :    2B3u    0.018
  LUNO+1 :    4 Ag    0.012
  LUNO+2 :    1B3g    0.012
  LUNO+3 :    1B2g    0.006

  Beta Occupations:
  HONO-2 :    1B1u    0.997
  HONO-1 :    1B3u    0.997
  HONO-0 :    3 Ag    0.946
  LUNO+0 :    2B3u    0.021
  LUNO+1 :    2B1u    0.011
  LUNO+2 :    2B2u    0.011
  LUNO+3 :    4 Ag    0.003

  Total Occupations:
  HONO-2 :    1B1u    1.995
  HONO-1 :    1B3u    1.994
  HONO-0 :    3 Ag    1.920
  LUNO+0 :    2B1u    0.985
  LUNO+1 :    2B2u    0.985
  LUNO+2 :    2B3u    0.039
  LUNO+3 :    4 Ag    0.013


    Psi4 stopped on: Friday, 06 June 2025 12:13AM
    Psi4 wall time for execution: 0:00:05.49

*** Psi4 exiting successfully. Buy a developer a beer!
