
    -----------------------------------------------------------------------
          Psi4: An Open-Source Ab Initio Electronic Structure Package
                               Psi4 1.9.1 release

                         Git: Rev {} zzzzzzz 


    D. G. A. Smith, L. A. Burns, A. C. Simmonett, R. M. Parrish,
    M. C. Schieber, R. Galvelis, P. Kraus, H. Kruse, R. Di Remigio,
    A. Alenaizan, A. M. James, S. Lehtola, J. P. Misiewicz, M. Scheurer,
    R. A. Shaw, J. B. Schriber, Y. Xie, Z. L. Glick, D. A. Sirianni,
    J. S. O'Brien, J. M. Waldrop, A. Kumar, E. G. Hohenstein,
    B. P. Pritchard, B. R. Brooks, H. F. Schaefer III, A. Yu. Sokolov,
    K. Patkowski, A. E. DePrince III, U. Bozkaya, R. A. King,
    F. A. Evangelista, J. M. Turney, T. D. Crawford, C. D. Sherrill,
    J. Chem. Phys. 152(18) 184108 (2020). https://doi.org/10.1063/5.0006002

                            Additional Code Authors
    E. T. Seidl, C. L. Janssen, E. F. Valeev, M. L. Leininger,
    J. F. Gonthier, R. M. Richard, H. R. McAlexander, M. Saitow, X. Wang,
    P. Verma, M. H. Lechner, A. Jiang, S. Behnle, A. G. Heide,
    M. F. Herbst, and D. L. Poole

             Previous Authors, Complete List of Code Contributors,
                       and Citations for Specific Modules
    https://github.com/psi4/psi4/blob/master/codemeta.json
    https://github.com/psi4/psi4/graphs/contributors
    http://psicode.org/psi4manual/master/introduction.html#citing-psifour

    -----------------------------------------------------------------------


    Psi4 started on: Wednesday, 04 June 2025 11:38AM

    Process ID: 2769204
    Host:       OptiPlex-Tower-Plus-7020
    PSIDATADIR: /home/jfhlewyee/anaconda3/envs/psi4/share/psi4
    Memory:     500.0 MiB
    Threads:    20
    
  ==> Input File <==

--------------------------------------------------------------------------
memory 20Gb

molecule{
1 2
H     0.00000000  0.00000000  -0.79295577
H     0.00000000  0.00000000  0.79295577
}

set reference rohf

energy("CCSD(T)/def2-QZVP")
--------------------------------------------------------------------------

  Memory set to  18.626 GiB by Python driver.

Scratch directory: /tmp/
   => Libint2 <=

    Primary   basis highest AM E, G, H:  6, 6, 3
    Auxiliary basis highest AM E, G, H:  7, 7, 4
    Onebody   basis highest AM E, G, H:  -, -, -
    Solid Harmonics ordering:            Gaussian

*** tstart() called on OptiPlex-Tower-Plus-7020
*** at Wed Jun  4 11:38:53 2025

   => Loading Basis Set <=

    Name: DEF2-QZVP
    Role: ORBITAL
    Keyword: BASIS
    atoms 1-2 entry H          line    15 file /home/jfhlewyee/anaconda3/envs/psi4/share/psi4/basis/def2-qzvp.gbs 


         ---------------------------------------------------------
                                   SCF
               by Justin Turney, Rob Parrish, Andy Simmonett
                          and Daniel G. A. Smith
                             ROHF Reference
                       20 Threads,  19073 MiB Core
         ---------------------------------------------------------

  ==> Geometry <==

    Molecular point group: d2h
    Full point group: D_inf_h

    Geometry (in Angstrom), charge = 1, multiplicity = 2:

       Center              X                  Y                   Z               Mass       
    ------------   -----------------  -----------------  -----------------  -----------------
         H            0.000000000000     0.000000000000    -0.792955770000     1.007825032230
         H            0.000000000000     0.000000000000     0.792955770000     1.007825032230

  Running in d2h symmetry.

  Rotational constants: A = ************  B =     13.30097  C =     13.30097 [cm^-1]
  Rotational constants: A = ************  B = 398753.15776  C = 398753.15776 [MHz]
  Nuclear repulsion =    0.333673850856776

  Charge       = 1
  Multiplicity = 2
  Electrons    = 1
  Nalpha       = 1
  Nbeta        = 0

  ==> Algorithm <==

  SCF Algorithm Type is PK.
  DIIS enabled.
  MOM disabled.
  Fractional occupation disabled.
  Guess Type is SAD.
  Energy threshold   = 1.00e-08
  Density threshold  = 1.00e-08
  Integral threshold = 1.00e-12

  ==> Primary Basis <==

  Basis Set: DEF2-QZVP
    Blend: DEF2-QZVP
    Number of shells: 20
    Number of basis functions: 60
    Number of Cartesian functions: 70
    Spherical Harmonics?: true
    Max angular momentum: 3

  ==> Integral Setup <==

  Using in-core PK algorithm.
   Calculation information:
      Number of atoms:                   2
      Number of AO shells:              20
      Number of primitives:             26
      Number of atomic orbitals:        70
      Number of basis functions:        60

      Integral cutoff                 1.00e-12
      Number of threads:                20

  Performing in-core PK
  Using 3350730 doubles for integral storage.
  We computed 75155 shell quartets total.
  Whereas there are 22155 unique shell quartets.
   239.22 percent of shell quartets recomputed by reordering.

  ==> DiskJK: Disk-Based J/K Matrices <==

    J tasked:                  Yes
    K tasked:                  Yes
    wK tasked:                  No
    Memory [MiB]:            14305
    Schwarz Cutoff:          1E-12

    OpenMP threads:             20

  Minimum eigenvalue in the overlap matrix is 1.9572422971E-02.
  Reciprocal condition number of the overlap matrix is 5.5993521772E-03.
    Using symmetric orthogonalization.

  ==> Pre-Iterations <==

  SCF Guess: Superposition of Atomic Densities via on-the-fly atomic UHF (no occupation information).

   -------------------------
    Irrep   Nso     Nmo    
   -------------------------
     Ag        13      13 
     B1g        3       3 
     B2g        7       7 
     B3g        7       7 
     Au         3       3 
     B1u       13      13 
     B2u        7       7 
     B3u        7       7 
   -------------------------
    Total      60      60
   -------------------------

  ==> Iterations <==

                        Total Energy        Delta E     RMS |[F,P]|

   @ROHF iter SAD:    -0.77067264708695   -7.70673e-01   0.00000e+00 
   @ROHF iter   1:    -0.55096133414636    2.19711e-01   5.54765e-03 DIIS
   @ROHF iter   2:    -0.57702022636573   -2.60589e-02   9.53569e-04 DIIS
   @ROHF iter   3:    -0.57754132684447   -5.21100e-04   6.78802e-05 DIIS
   @ROHF iter   4:    -0.57754308926861   -1.76242e-06   7.07694e-06 DIIS
   @ROHF iter   5:    -0.57754312901169   -3.97431e-08   8.50972e-07 DIIS
   @ROHF iter   6:    -0.57754312952222   -5.10526e-10   7.18035e-08 DIIS
   @ROHF iter   7:    -0.57754312952591   -3.69604e-12   1.53154e-09 DIIS
  Energy and wave function converged.


  ==> Post-Iterations <==

    Orbital Energies [Eh]
    ---------------------

    Doubly Occupied:                                                      

    

    Singly Occupied:                                                      

       1Ag    -0.644291  

    Virtual:                                                              

       1B1u   -0.305968     2Ag    -0.028482     2B1u    0.036675  
       1B3u    0.136394     1B2u    0.136394     3Ag     0.268920  
       1B3g    0.362553     1B2g    0.362553     3B1u    0.655333  
       4Ag     0.865379     4B1u    0.905978     2B3u    1.477024  
       2B2u    1.477024     5Ag     1.518235     1B1g    1.588071  
       6Ag     1.588071     5B1u    1.795352     1Au     1.795352  
       3B2u    1.950654     3B3u    1.950654     2B2g    1.999404  
       2B3g    1.999404     6B1u    2.174928     3B2g    2.258309  
       3B3g    2.258309     7Ag     2.332818     7B1u    2.946651  
       8Ag     4.753259     8B1u    4.917464     4B3u    5.247571  
       4B2u    5.247571     2B1g    5.459626     9Ag     5.459626  
      10Ag     5.488564     5B2u    5.594805     5B3u    5.594805  
       4B3g    5.627491     4B2g    5.627491     2Au     5.770736  
       9B1u    5.770736     5B3g    6.237574     5B2g    6.237574  
      10B1u    6.458416    11Ag     7.240651     6B2u    7.246796  
       6B3u    7.246796     6B3g    7.366647     6B2g    7.366647  
      12Ag     7.591739     3B1g    7.591739     7B3u    7.647784  
       7B2u    7.647784     3Au     7.710290    11B1u    7.710290  
      12B1u    7.894790     7B2g    8.068854     7B3g    8.068854  
      13Ag     8.274756    13B1u    9.020921  

    Final Occupation by Irrep:
             Ag   B1g   B2g   B3g    Au   B1u   B2u   B3u 
    DOCC [     0,    0,    0,    0,    0,    0,    0,    0 ]
    SOCC [     1,    0,    0,    0,    0,    0,    0,    0 ]
    NA   [     1,    0,    0,    0,    0,    0,    0,    0 ]
    NB   [     0,    0,    0,    0,    0,    0,    0,    0 ]

  @ROHF Final Energy:    -0.57754312952591

   => Energetics <=

    Nuclear Repulsion Energy =              0.3336738508567759
    One-Electron Energy =                  -0.9112169803826886
    Two-Electron Energy =                  -0.0000000000000000
    Total Energy =                         -0.5775431295259127

Computation Completed


Properties will be evaluated at   0.000000,   0.000000,   0.000000 [a0]

Properties computed using the SCF density matrix


 Multipole Moments:

 ------------------------------------------------------------------------------------
     Multipole            Electronic (a.u.)      Nuclear  (a.u.)        Total (a.u.)
 ------------------------------------------------------------------------------------

 L = 1.  Multiply by 2.5417464519 to convert [e a0] to [Debye]
 Dipole X            :          0.0000000            0.0000000            0.0000000
 Dipole Y            :          0.0000000            0.0000000            0.0000000
 Dipole Z            :          0.0000000            0.0000000            0.0000000
 Magnitude           :                                                    0.0000000

 ------------------------------------------------------------------------------------

*** tstop() called on OptiPlex-Tower-Plus-7020 at Wed Jun  4 11:38:53 2025
Module time:
	user time   =       0.53 seconds =       0.01 minutes
	system time =       0.02 seconds =       0.00 minutes
	total time  =          0 seconds =       0.00 minutes
Total time:
	user time   =       0.53 seconds =       0.01 minutes
	system time =       0.02 seconds =       0.00 minutes
	total time  =          0 seconds =       0.00 minutes
 MINTS: Wrapper to libmints.
   by Justin Turney

   Calculation information:
      Number of threads:                20
      Number of atoms:                   2
      Number of AO shells:              20
      Number of SO shells:              10
      Number of primitives:             26
      Number of atomic orbitals:        70
      Number of basis functions:        60

      Number of irreps:                  8
      Integral cutoff                 1.00e-12
      Number of functions per irrep: [  13    3    7    7    3   13    7    7 ]

 OEINTS: Overlap, kinetic, potential, dipole, and quadrupole integrals
         stored in file 35.

      Computing two-electron integrals...done
      Computed 180477 non-zero two-electron integrals.
        Stored in file 33.


*** tstart() called on OptiPlex-Tower-Plus-7020
*** at Wed Jun  4 11:38:53 2025


	Wfn Parameters:
	--------------------
	Wavefunction         = CCSD_T
	Number of irreps     = 8
	Number of MOs        = 60
	Number of active MOs = 60
	AO-Basis             = NONE
	Semicanonical        = true
	Reference            = ROHF changed to UHF for semicanonical orbitals
	Print Level          = 1

	IRREP	# MOs	# FZDC	# DOCC	# SOCC	# VIRT	# FZVR
	-----	-----	------	------	------	------	------
	 Ag	   13	    0	    0	    1	    12	    0
	 B1g	   3	    0	    0	    0	    3	    0
	 B2g	   7	    0	    0	    0	    7	    0
	 B3g	   7	    0	    0	    0	    7	    0
	 Au	   3	    0	    0	    0	    3	    0
	 B1u	   13	    0	    0	    0	    13	    0
	 B2u	   7	    0	    0	    0	    7	    0
	 B3u	   7	    0	    0	    0	    7	    0
	Transforming integrals...
	IWL integrals will be deleted.
	(OO|OO)...
	Presorting SO-basis two-electron integrals.
	Sorting File: SO Ints (nn|nn) nbuckets = 1
	Constructing frozen core operators
	Starting AA/AB first half-transformation.
	Sorting AA/AB half-transformed integrals.
	Starting BB first half-transformation.
	Sorting BB half-transformed integrals.
	First half integral transformation complete.
	Starting AA second half-transformation.
	Starting AB second half-transformation.
	Starting BB second half-transformation.
	Two-electron integral transformation complete.
	(OO|OV)...
	Starting AA second half-transformation.
	Starting AB second half-transformation.
	Starting BB second half-transformation.
	Two-electron integral transformation complete.
	(OO|VV)...
	Starting AA second half-transformation.
	Starting AB second half-transformation.
	Starting BB second half-transformation.
	Two-electron integral transformation complete.
	(OV|OO)...
	Starting AA/AB first half-transformation.
	Sorting AA/AB half-transformed integrals.
	Starting BB first half-transformation.
	Sorting BB half-transformed integrals.
	First half integral transformation complete.
	Starting AA second half-transformation.
	Starting AB second half-transformation.
	Starting BB second half-transformation.
	Two-electron integral transformation complete.
	(OV|OV)...
	Starting AA second half-transformation.
	Starting AB second half-transformation.
	Starting BB second half-transformation.
	Two-electron integral transformation complete.
	(OV|VV)...
	Starting AA second half-transformation.
	Starting AB second half-transformation.
	Starting BB second half-transformation.
	Two-electron integral transformation complete.
	(VV|OO)...
	Starting AA/AB first half-transformation.
	Sorting AA/AB half-transformed integrals.
	Starting BB first half-transformation.
	Sorting BB half-transformed integrals.
	First half integral transformation complete.
	Starting AA second half-transformation.
	Starting AB second half-transformation.
	Starting BB second half-transformation.
	Two-electron integral transformation complete.
	(VV|OV)...
	Starting AA second half-transformation.
	Starting AB second half-transformation.
	Starting BB second half-transformation.
	Two-electron integral transformation complete.
	(VV|VV)...
	Starting AA second half-transformation.
	Starting AB second half-transformation.
	Starting BB second half-transformation.
	Two-electron integral transformation complete.
	Frozen core energy     =      0.00000000000000

	Size of irrep 0 of <AB|CD> integrals:      0.055 (MW) /      0.438 (MB)
	Size of irrep 1 of <AB|CD> integrals:      0.030 (MW) /      0.239 (MB)
	Size of irrep 2 of <AB|CD> integrals:      0.047 (MW) /      0.377 (MB)
	Size of irrep 3 of <AB|CD> integrals:      0.047 (MW) /      0.377 (MB)
	Size of irrep 4 of <AB|CD> integrals:      0.030 (MW) /      0.239 (MB)
	Size of irrep 5 of <AB|CD> integrals:      0.069 (MW) /      0.553 (MB)
	Size of irrep 6 of <AB|CD> integrals:      0.047 (MW) /      0.377 (MB)
	Size of irrep 7 of <AB|CD> integrals:      0.047 (MW) /      0.377 (MB)
	Total:                                     0.372 (MW) /      2.977 (MB)

	Size of irrep 0 of <ab|cd> integrals:      0.061 (MW) /      0.484 (MB)
	Size of irrep 1 of <ab|cd> integrals:      0.031 (MW) /      0.248 (MB)
	Size of irrep 2 of <ab|cd> integrals:      0.050 (MW) /      0.401 (MB)
	Size of irrep 3 of <ab|cd> integrals:      0.050 (MW) /      0.401 (MB)
	Size of irrep 4 of <ab|cd> integrals:      0.031 (MW) /      0.248 (MB)
	Size of irrep 5 of <ab|cd> integrals:      0.076 (MW) /      0.609 (MB)
	Size of irrep 6 of <ab|cd> integrals:      0.050 (MW) /      0.401 (MB)
	Size of irrep 7 of <ab|cd> integrals:      0.050 (MW) /      0.401 (MB)
	Total:                                     0.399 (MW) /      3.195 (MB)

	Size of irrep 0 of <Ab|Cd> integrals:      0.291 (MW) /      2.324 (MB)
	Size of irrep 1 of <Ab|Cd> integrals:      0.122 (MW) /      0.974 (MB)
	Size of irrep 2 of <Ab|Cd> integrals:      0.194 (MW) /      1.556 (MB)
	Size of irrep 3 of <Ab|Cd> integrals:      0.194 (MW) /      1.556 (MB)
	Size of irrep 4 of <Ab|Cd> integrals:      0.122 (MW) /      0.974 (MB)
	Size of irrep 5 of <Ab|Cd> integrals:      0.291 (MW) /      2.324 (MB)
	Size of irrep 6 of <Ab|Cd> integrals:      0.194 (MW) /      1.556 (MB)
	Size of irrep 7 of <Ab|Cd> integrals:      0.194 (MW) /      1.556 (MB)
	Total:                                     1.603 (MW) /     12.821 (MB)

	Size of irrep 0 of <IA|BC> integrals:      0.006 (MW) /      0.051 (MB)
	Size of irrep 1 of <IA|BC> integrals:      0.001 (MW) /      0.008 (MB)
	Size of irrep 2 of <IA|BC> integrals:      0.003 (MW) /      0.024 (MB)
	Size of irrep 3 of <IA|BC> integrals:      0.003 (MW) /      0.024 (MB)
	Size of irrep 4 of <IA|BC> integrals:      0.001 (MW) /      0.008 (MB)
	Size of irrep 5 of <IA|BC> integrals:      0.007 (MW) /      0.055 (MB)
	Size of irrep 6 of <IA|BC> integrals:      0.003 (MW) /      0.024 (MB)
	Size of irrep 7 of <IA|BC> integrals:      0.003 (MW) /      0.024 (MB)
	Total:                                     0.027 (MW) /      0.219 (MB)

	Size of irrep 0 of <ia|bc> integrals:      0.000 (MW) /      0.000 (MB)
	Size of irrep 1 of <ia|bc> integrals:      0.000 (MW) /      0.000 (MB)
	Size of irrep 2 of <ia|bc> integrals:      0.000 (MW) /      0.000 (MB)
	Size of irrep 3 of <ia|bc> integrals:      0.000 (MW) /      0.000 (MB)
	Size of irrep 4 of <ia|bc> integrals:      0.000 (MW) /      0.000 (MB)
	Size of irrep 5 of <ia|bc> integrals:      0.000 (MW) /      0.000 (MB)
	Size of irrep 6 of <ia|bc> integrals:      0.000 (MW) /      0.000 (MB)
	Size of irrep 7 of <ia|bc> integrals:      0.000 (MW) /      0.000 (MB)
	Total:                                     0.000 (MW) /      0.000 (MB)

	Size of irrep 0 of <Ia|Bc> integrals:      0.007 (MW) /      0.056 (MB)
	Size of irrep 1 of <Ia|Bc> integrals:      0.001 (MW) /      0.008 (MB)
	Size of irrep 2 of <Ia|Bc> integrals:      0.003 (MW) /      0.025 (MB)
	Size of irrep 3 of <Ia|Bc> integrals:      0.003 (MW) /      0.025 (MB)
	Size of irrep 4 of <Ia|Bc> integrals:      0.001 (MW) /      0.008 (MB)
	Size of irrep 5 of <Ia|Bc> integrals:      0.007 (MW) /      0.056 (MB)
	Size of irrep 6 of <Ia|Bc> integrals:      0.003 (MW) /      0.025 (MB)
	Size of irrep 7 of <Ia|Bc> integrals:      0.003 (MW) /      0.025 (MB)
	Total:                                     0.028 (MW) /      0.228 (MB)

	Size of irrep 0 of <iA|bC> integrals:      0.000 (MW) /      0.000 (MB)
	Size of irrep 1 of <iA|bC> integrals:      0.000 (MW) /      0.000 (MB)
	Size of irrep 2 of <iA|bC> integrals:      0.000 (MW) /      0.000 (MB)
	Size of irrep 3 of <iA|bC> integrals:      0.000 (MW) /      0.000 (MB)
	Size of irrep 4 of <iA|bC> integrals:      0.000 (MW) /      0.000 (MB)
	Size of irrep 5 of <iA|bC> integrals:      0.000 (MW) /      0.000 (MB)
	Size of irrep 6 of <iA|bC> integrals:      0.000 (MW) /      0.000 (MB)
	Size of irrep 7 of <iA|bC> integrals:      0.000 (MW) /      0.000 (MB)
	Total:                                     0.000 (MW) /      0.000 (MB)

	Size of irrep 0 of tIjAb amplitudes:       0.000 (MW) /      0.000 (MB)
	Size of irrep 1 of tIjAb amplitudes:       0.000 (MW) /      0.000 (MB)
	Size of irrep 2 of tIjAb amplitudes:       0.000 (MW) /      0.000 (MB)
	Size of irrep 3 of tIjAb amplitudes:       0.000 (MW) /      0.000 (MB)
	Size of irrep 4 of tIjAb amplitudes:       0.000 (MW) /      0.000 (MB)
	Size of irrep 5 of tIjAb amplitudes:       0.000 (MW) /      0.000 (MB)
	Size of irrep 6 of tIjAb amplitudes:       0.000 (MW) /      0.000 (MB)
	Size of irrep 7 of tIjAb amplitudes:       0.000 (MW) /      0.000 (MB)
	Total:                                     0.000 (MW) /      0.000 (MB)

	Nuclear Rep. energy          =      0.33367385085678
	SCF energy                   =     -0.57754312952591
	One-electron energy          =     -0.91121698038269
	Two-electron (AA) energy     =      0.00000000000000
	Two-electron (BB) energy     =      0.00000000000000
	Two-electron (AB) energy     =      0.00000000000000
	Two-electron energy          =      0.00000000000000
	Reference energy             =     -0.57754312952591

*** tstop() called on OptiPlex-Tower-Plus-7020 at Wed Jun  4 11:38:53 2025
Module time:
	user time   =       0.05 seconds =       0.00 minutes
	system time =       0.05 seconds =       0.00 minutes
	total time  =          0 seconds =       0.00 minutes
Total time:
	user time   =       0.60 seconds =       0.01 minutes
	system time =       0.07 seconds =       0.00 minutes
	total time  =          0 seconds =       0.00 minutes
            **************************
            *                        *
            *        CCENERGY        *
            *                        *
            **************************

    Nuclear Rep. energy (wfn)     =    0.333673850856776
    SCF energy          (wfn)     =   -0.577543129525913
    Reference energy    (file100) =   -0.577543129525913

    Input parameters:
    -----------------
    Wave function   =     CCSD_T
    Reference wfn   =     ROHF changed to UHF for Semicanonical Orbitals
    Brueckner       =     No
    Memory (Mbytes) =     20000.0
    Maxiter         =     50
    R_Convergence   =     1.0e-07
    E_Convergence   =     1.0e-06
    Restart         =     Yes
    DIIS            =     Yes
    AO Basis        =     NONE
    ABCD            =     NEW
    Cache Level     =     2
    Cache Type      =     LRU
    Print Level     =     1
    Num. of threads =     20
    # Amps to Print =     10
    Print MP2 Amps? =     No
    Analyze T2 Amps =     No
    Print Pair Ener =     No
    Local CC        =     No
    SCS-MP2         =     False
    SCSN-MP2        =     False
    SCS-CCSD        =     False

MP2 correlation energy -0.0000000000000002
                Solving CC Amplitude Equations
                ------------------------------
  Iter             Energy              RMS        T1Diag      D1Diag    New D1Diag    D2Diag
  ----     ---------------------    ---------   ----------  ----------  ----------   --------
     0        -0.000000000000000    0.000e+00    0.000000    0.000000    0.000000    0.000000
     1        -0.000000000000000    3.612e-09    0.000000    0.000000    0.000000    0.000000

    Iterations converged.


    Largest TIA Amplitudes:
              0   1         0.0000000119

    SCF energy       (wfn)                    =   -0.577543129525913
    Reference energy (file100)                =   -0.577543129525913

    Opposite-spin MP2 correlation energy      =    0.000000000000000
    Same-spin MP2 correlation energy          =    0.000000000000000
    Singles MP2 correlation energy            =   -0.000000000000000
    MP2 correlation energy                    =   -0.000000000000000
      * MP2 total energy                      =   -0.577543129525913

    Opposite-spin CCSD correlation energy     =    0.000000000000000
    Same-spin CCSD correlation energy         =    0.000000000000000
    Singles CCSD correlation energy           =   -0.000000000000000
    CCSD correlation energy                   =   -0.000000000000000
      * CCSD total energy                     =   -0.577543129525913

            **************************
            *                        *
            *        CCTRIPLES       *
            *                        *
            **************************


    Wave function   =    CCSD_T
    Reference wfn   =    ROHF changed to UHF for Semicanonical Orbitals

    Nuclear Rep. energy (wfn)                =    0.333673850856776
    SCF energy          (wfn)                =   -0.577543129525913
    Reference energy    (file100)            =   -0.577543129525913
    CCSD energy         (file100)            =   -0.000000000000000
    Total CCSD energy   (file100)            =   -0.577543129525913

    Number of ijk index combinations:
    Spin Case AAA:                                   0
    Spin Case BBB:                                   0
    Spin Case AAB:                                   0
    Spin Case ABB:                                   0
    AAA (T) energy                             =    0.000000000000000
    BBB (T) energy                             =    0.000000000000000
    AAB (T) energy                             =    0.000000000000000
    ABB (T) energy                             =    0.000000000000000
    (T) energy                                   =    0.000000000000000
      * CCSD(T) total energy                     =   -0.577543129525913


    Psi4 stopped on: Wednesday, 04 June 2025 11:38AM
    Psi4 wall time for execution: 0:00:00.37

*** Psi4 exiting successfully. Buy a developer a beer!
