
    -----------------------------------------------------------------------
          Psi4: An Open-Source Ab Initio Electronic Structure Package
                               Psi4 1.9.1 release

                         Git: Rev {} zzzzzzz 


    D. G. A. Smith, L. A. Burns, A. C. Simmonett, R. M. Parrish,
    M. C. Schieber, R. Galvelis, P. Kraus, H. Kruse, R. Di Remigio,
    A. Alenaizan, A. M. James, S. Lehtola, J. P. Misiewicz, M. Scheurer,
    R. A. Shaw, J. B. Schriber, Y. Xie, Z. L. Glick, D. A. Sirianni,
    J. S. O'Brien, J. M. Waldrop, A. Kumar, E. G. Hohenstein,
    B. P. Pritchard, B. R. Brooks, H. F. Schaefer III, A. Yu. Sokolov,
    K. Patkowski, A. E. DePrince III, U. Bozkaya, R. A. King,
    F. A. Evangelista, J. M. Turney, T. D. Crawford, C. D. Sherrill,
    J. Chem. Phys. 152(18) 184108 (2020). https://doi.org/10.1063/5.0006002

                            Additional Code Authors
    E. T. Seidl, C. L. Janssen, E. F. Valeev, M. L. Leininger,
    J. F. Gonthier, R. M. Richard, H. R. McAlexander, M. Saitow, X. Wang,
    P. Verma, M. H. Lechner, A. Jiang, S. Behnle, A. G. Heide,
    M. F. Herbst, and D. L. Poole

             Previous Authors, Complete List of Code Contributors,
                       and Citations for Specific Modules
    https://github.com/psi4/psi4/blob/master/codemeta.json
    https://github.com/psi4/psi4/graphs/contributors
    http://psicode.org/psi4manual/master/introduction.html#citing-psifour

    -----------------------------------------------------------------------


    Psi4 started on: Friday, 06 June 2025 12:13AM

    Process ID: 2574949
    Host:       nh007
    PSIDATADIR: /software-nas/eb2024/easybuild/software/rocky/8.9/intel/cascadelake/software/PSI4/1.9.1-foss-2023b/share/psi4
    Memory:     500.0 MiB
    Threads:    40
    
  ==> Input File <==

--------------------------------------------------------------------------
memory 100Gb

molecule{
1 2
He     0.00000000  0.00000000  -0.67137733
He     0.00000000  0.00000000  0.67137733
}

set reference rohf

properties("CCSD/def2-QZVP", properties=["NO_OCCUPATIONS"])
--------------------------------------------------------------------------

  Memory set to  93.132 GiB by Python driver.
   => Libint2 <=

    Primary   basis highest AM E, G, H:  5, 4, 3
    Auxiliary basis highest AM E, G, H:  6, 5, 4
    Onebody   basis highest AM E, G, H:  6, 5, 4
    Solid Harmonics ordering:            Gaussian

*** tstart() called on nh007
*** at Fri Jun  6 00:13:28 2025

   => Loading Basis Set <=

    Name: DEF2-QZVP
    Role: ORBITAL
    Keyword: BASIS
    atoms 1-2 entry HE         line    40 file /software-nas/eb2024/easybuild/software/rocky/8.9/intel/cascadelake/software/PSI4/1.9.1-foss-2023b/share/psi4/basis/def2-qzvp.gbs 


         ---------------------------------------------------------
                                   SCF
               by Justin Turney, Rob Parrish, Andy Simmonett
                          and Daniel G. A. Smith
                             ROHF Reference
                       40 Threads,  95367 MiB Core
         ---------------------------------------------------------

  ==> Geometry <==

    Molecular point group: d2h
    Full point group: D_inf_h

    Geometry (in Angstrom), charge = 1, multiplicity = 2:

       Center              X                  Y                   Z               Mass       
    ------------   -----------------  -----------------  -----------------  -----------------
         HE           0.000000000000     0.000000000000    -0.671377330000     4.002603254130
         HE           0.000000000000     0.000000000000     0.671377330000     4.002603254130

  Running in d2h symmetry.

  Rotational constants: A = ************  B =      4.67187  C =      4.67187 [cm^-1]
  Rotational constants: A = ************  B = 140059.09454  C = 140059.09454 [MHz]
  Nuclear repulsion =    1.576392848027800

  Charge       = 1
  Multiplicity = 2
  Electrons    = 3
  Nalpha       = 2
  Nbeta        = 1

  ==> Algorithm <==

  SCF Algorithm Type is PK.
  DIIS enabled.
  MOM disabled.
  Fractional occupation disabled.
  Guess Type is SAD.
  Energy threshold   = 1.00e-10
  Density threshold  = 1.00e-10
  Integral threshold = 1.00e-12

  ==> Primary Basis <==

  Basis Set: DEF2-QZVP
    Blend: DEF2-QZVP
    Number of shells: 20
    Number of basis functions: 60
    Number of Cartesian functions: 70
    Spherical Harmonics?: true
    Max angular momentum: 3

  ==> Integral Setup <==

  Using in-core PK algorithm.
   Calculation information:
      Number of atoms:                   2
      Number of AO shells:              20
      Number of primitives:             28
      Number of atomic orbitals:        70
      Number of basis functions:        60

      Integral cutoff                 1.00e-12
      Number of threads:                40

  Performing in-core PK
  Using 3350730 doubles for integral storage.
  We computed 123463 shell quartets total.
  Whereas there are 22155 unique shell quartets.
   457.27 percent of shell quartets recomputed by reordering.

  ==> DiskJK: Disk-Based J/K Matrices <==

    J tasked:                  Yes
    K tasked:                  Yes
    wK tasked:                  No
    Memory [MiB]:            71525
    Schwarz Cutoff:          1E-12

    OpenMP threads:             40

  Minimum eigenvalue in the overlap matrix is 2.7624995386E-02.
  Reciprocal condition number of the overlap matrix is 8.6545113911E-03.
    Using symmetric orthogonalization.

  ==> Pre-Iterations <==

  SCF Guess: Superposition of Atomic Densities via on-the-fly atomic UHF (no occupation information).

   -------------------------
    Irrep   Nso     Nmo    
   -------------------------
     Ag        13      13 
     B1g        3       3 
     B2g        7       7 
     B3g        7       7 
     Au         3       3 
     B1u       13      13 
     B2u        7       7 
     B3u        7       7 
   -------------------------
    Total      60      60
   -------------------------

  ==> Iterations <==

                        Total Energy        Delta E     RMS |[F,P]|

   @ROHF iter SAD:    -5.78141497473678   -5.78141e+00   0.00000e+00 
   @ROHF iter   1:    -4.87297126800048    9.08444e-01   9.00233e-03 DIIS
   @ROHF iter   2:    -4.90252594206519   -2.95547e-02   7.97696e-04 DIIS
   @ROHF iter   3:    -4.90280106236767   -2.75120e-04   6.54761e-05 DIIS
   @ROHF iter   4:    -4.90280377002642   -2.70766e-06   9.45693e-06 DIIS
   @ROHF iter   5:    -4.90280382618329   -5.61569e-08   3.57954e-07 DIIS
   @ROHF iter   6:    -4.90280382624320   -5.99032e-11   2.03713e-08 DIIS
   @ROHF iter   7:    -4.90280382624339   -1.96287e-13   1.81599e-09 DIIS
   @ROHF iter   8:    -4.90280382624339    1.77636e-15   1.48348e-10 DIIS
   @ROHF iter   9:    -4.90280382624339    2.66454e-15   5.01553e-12 DIIS
  Energy and wave function converged.


  ==> Post-Iterations <==

    Orbital Energies [Eh]
    ---------------------

    Doubly Occupied:                                                      

       1Ag    -1.527845  

    Singly Occupied:                                                      

       1B1u   -1.132501  

    Virtual:                                                              

       2Ag     0.067397     2B1u    0.127171     1B2u    0.474338  
       1B3u    0.474338     3Ag     0.562250     1B3g    0.810553  
       1B2g    0.810553     3B1u    1.313557     4Ag     1.708681  
       4B1u    1.927826     2B3u    2.974278     2B2u    2.974278  
       5Ag     3.049438     6Ag     3.253410     1B1g    3.253410  
       5B1u    3.447303     1Au     3.447303     2B2g    3.864930  
       2B3g    3.864930     3B3u    4.161469     3B2u    4.161469  
       6B1u    4.304075     3B2g    4.408290     3B3g    4.408290  
       7Ag     4.637108     7B1u    5.467914     8Ag     9.610009  
       8B1u    9.654118     9Ag    10.626909     4B3u   10.725045  
       4B2u   10.725045    10Ag    10.910403     2B1g   10.910403  
       5B3u   10.968302     5B2u   10.968302     4B3g   10.976539  
       4B2g   10.976539     9B1u   11.026590     2Au    11.026590  
       5B3g   11.311592     5B2g   11.311592    10B1u   11.852607  
       6B3u   15.337932     6B2u   15.337932    11Ag    15.453239  
       3B1g   15.453239    11B1u   15.569776     3Au    15.569776  
      12Ag    15.574436     6B2g   15.952502     6B3g   15.952502  
       7B3u   17.075164     7B2u   17.075164     7B2g   17.189662  
       7B3g   17.189662    12B1u   17.223562    13B1u   17.381476  
      13Ag    17.439869  

    Final Occupation by Irrep:
             Ag   B1g   B2g   B3g    Au   B1u   B2u   B3u 
    DOCC [     1,    0,    0,    0,    0,    0,    0,    0 ]
    SOCC [     0,    0,    0,    0,    0,    1,    0,    0 ]
    NA   [     1,    0,    0,    0,    0,    1,    0,    0 ]
    NB   [     1,    0,    0,    0,    0,    0,    0,    0 ]

  @ROHF Final Energy:    -4.90280382624339

   => Energetics <=

    Nuclear Repulsion Energy =              1.5763928480278000
    One-Electron Energy =                  -8.3749063324826807
    Two-Electron Energy =                   1.8957096582114914
    Total Energy =                         -4.9028038262433888

Computation Completed


Properties will be evaluated at   0.000000,   0.000000,   0.000000 [a0]

Properties computed using the SCF density matrix


 Multipole Moments:

 ------------------------------------------------------------------------------------
     Multipole            Electronic (a.u.)      Nuclear  (a.u.)        Total (a.u.)
 ------------------------------------------------------------------------------------

 L = 1.  Multiply by 2.5417464519 to convert [e a0] to [Debye]
 Dipole X            :          0.0000000            0.0000000            0.0000000
 Dipole Y            :          0.0000000            0.0000000            0.0000000
 Dipole Z            :          0.0000000            0.0000000            0.0000000
 Magnitude           :                                                    0.0000000

 ------------------------------------------------------------------------------------

*** tstop() called on nh007 at Fri Jun  6 00:13:28 2025
Module time:
	user time   =      12.45 seconds =       0.21 minutes
	system time =       0.22 seconds =       0.00 minutes
	total time  =          0 seconds =       0.00 minutes
Total time:
	user time   =      12.45 seconds =       0.21 minutes
	system time =       0.22 seconds =       0.00 minutes
	total time  =          0 seconds =       0.00 minutes
 MINTS: Wrapper to libmints.
   by Justin Turney

   Calculation information:
      Number of threads:                40
      Number of atoms:                   2
      Number of AO shells:              20
      Number of SO shells:              10
      Number of primitives:             28
      Number of atomic orbitals:        70
      Number of basis functions:        60

      Number of irreps:                  8
      Integral cutoff                 1.00e-12
      Number of functions per irrep: [  13    3    7    7    3   13    7    7 ]

 OEINTS: Overlap, kinetic, potential, dipole, and quadrupole integrals
         stored in file 35.

      Computing two-electron integrals...done
      Computed 180477 non-zero two-electron integrals.
        Stored in file 33.


*** tstart() called on nh007
*** at Fri Jun  6 00:13:29 2025


	Wfn Parameters:
	--------------------
	Wavefunction         = CCSD
	Number of irreps     = 8
	Number of MOs        = 60
	Number of active MOs = 60
	AO-Basis             = NONE
	Semicanonical        = false
	Reference            = ROHF
	Print Level          = 1

	IRREP	# MOs	# FZDC	# DOCC	# SOCC	# VIRT	# FZVR
	-----	-----	------	------	------	------	------
	 Ag	   13	    0	    1	    0	    12	    0
	 B1g	   3	    0	    0	    0	    3	    0
	 B2g	   7	    0	    0	    0	    7	    0
	 B3g	   7	    0	    0	    0	    7	    0
	 Au	   3	    0	    0	    0	    3	    0
	 B1u	   13	    0	    0	    1	    12	    0
	 B2u	   7	    0	    0	    0	    7	    0
	 B3u	   7	    0	    0	    0	    7	    0
	Transforming integrals...
	IWL integrals will be deleted.
	(OO|OO)...
	Presorting SO-basis two-electron integrals.
	Sorting File: SO Ints (nn|nn) nbuckets = 1
	Constructing frozen core operators
	Starting first half-transformation.
	Sorting half-transformed integrals.
	First half integral transformation complete.
	Starting second half-transformation.
	Two-electron integral transformation complete.
	(OO|OV)...
	Starting second half-transformation.
	Two-electron integral transformation complete.
	(OO|VV)...
	Starting second half-transformation.
	Two-electron integral transformation complete.
	(OV|OO)...
	Starting first half-transformation.
	Sorting half-transformed integrals.
	First half integral transformation complete.
	Starting second half-transformation.
	Two-electron integral transformation complete.
	(OV|OV)...
	Starting second half-transformation.
	Two-electron integral transformation complete.
	(OV|VV)...
	Starting second half-transformation.
	Two-electron integral transformation complete.
	(VV|OO)...
	Starting first half-transformation.
	Sorting half-transformed integrals.
	First half integral transformation complete.
	Starting second half-transformation.
	Two-electron integral transformation complete.
	(VV|OV)...
	Starting second half-transformation.
	Two-electron integral transformation complete.
	(VV|VV)...
	Starting second half-transformation.
	Two-electron integral transformation complete.
	Frozen core energy     =      0.00000000000000

	Size of irrep 0 of <ab|cd> integrals:      0.278 (MW) /      2.222 (MB)
	Size of irrep 1 of <ab|cd> integrals:      0.120 (MW) /      0.958 (MB)
	Size of irrep 2 of <ab|cd> integrals:      0.188 (MW) /      1.507 (MB)
	Size of irrep 3 of <ab|cd> integrals:      0.188 (MW) /      1.507 (MB)
	Size of irrep 4 of <ab|cd> integrals:      0.120 (MW) /      0.958 (MB)
	Size of irrep 5 of <ab|cd> integrals:      0.277 (MW) /      2.213 (MB)
	Size of irrep 6 of <ab|cd> integrals:      0.188 (MW) /      1.507 (MB)
	Size of irrep 7 of <ab|cd> integrals:      0.188 (MW) /      1.507 (MB)
	Total:                                     1.547 (MW) /     12.378 (MB)

	Size of irrep 0 of <ia|bc> integrals:      0.013 (MW) /      0.105 (MB)
	Size of irrep 1 of <ia|bc> integrals:      0.002 (MW) /      0.017 (MB)
	Size of irrep 2 of <ia|bc> integrals:      0.006 (MW) /      0.049 (MB)
	Size of irrep 3 of <ia|bc> integrals:      0.006 (MW) /      0.049 (MB)
	Size of irrep 4 of <ia|bc> integrals:      0.002 (MW) /      0.017 (MB)
	Size of irrep 5 of <ia|bc> integrals:      0.013 (MW) /      0.105 (MB)
	Size of irrep 6 of <ia|bc> integrals:      0.006 (MW) /      0.049 (MB)
	Size of irrep 7 of <ia|bc> integrals:      0.006 (MW) /      0.049 (MB)
	Total:                                     0.055 (MW) /      0.438 (MB)

	Size of irrep 0 of tIjAb amplitudes:       0.001 (MW) /      0.008 (MB)
	Size of irrep 1 of tIjAb amplitudes:       0.000 (MW) /      0.000 (MB)
	Size of irrep 2 of tIjAb amplitudes:       0.000 (MW) /      0.000 (MB)
	Size of irrep 3 of tIjAb amplitudes:       0.000 (MW) /      0.000 (MB)
	Size of irrep 4 of tIjAb amplitudes:       0.000 (MW) /      0.000 (MB)
	Size of irrep 5 of tIjAb amplitudes:       0.001 (MW) /      0.008 (MB)
	Size of irrep 6 of tIjAb amplitudes:       0.000 (MW) /      0.000 (MB)
	Size of irrep 7 of tIjAb amplitudes:       0.000 (MW) /      0.000 (MB)
	Total:                                     0.002 (MW) /      0.017 (MB)

	Nuclear Rep. energy          =      1.57639284802780
	SCF energy                   =     -4.90280382624339
	One-electron energy          =     -8.37490633250098
	Two-electron (AA) energy     =      0.39498005668331
	Two-electron (BB) energy     =      0.00000000000000
	Two-electron (AB) energy     =      1.50072960154648
	Two-electron energy          =     -6.47919667427119
	Reference energy             =     -4.90280382624339

*** tstop() called on nh007 at Fri Jun  6 00:13:29 2025
Module time:
	user time   =       0.08 seconds =       0.00 minutes
	system time =       0.05 seconds =       0.00 minutes
	total time  =          0 seconds =       0.00 minutes
Total time:
	user time   =      12.98 seconds =       0.22 minutes
	system time =       0.31 seconds =       0.01 minutes
	total time  =          1 seconds =       0.02 minutes
            **************************
            *                        *
            *        CCENERGY        *
            *                        *
            **************************

    Nuclear Rep. energy (wfn)     =    1.576392848027800
    SCF energy          (wfn)     =   -4.902803826243389
    Reference energy    (file100) =   -4.902803826243391

    Input parameters:
    -----------------
    Wave function   =     CCSD
    Reference wfn   =     ROHF
    Brueckner       =     No
    Memory (Mbytes) =     100000.0
    Maxiter         =     50
    R_Convergence   =     1.0e-07
    E_Convergence   =     1.0e-08
    Restart         =     Yes
    DIIS            =     Yes
    AO Basis        =     NONE
    ABCD            =     NEW
    Cache Level     =     2
    Cache Type      =     LOW
    Print Level     =     1
    Num. of threads =     40
    # Amps to Print =     10
    Print MP2 Amps? =     No
    Analyze T2 Amps =     No
    Print Pair Ener =     No
    Local CC        =     No
    SCS-MP2         =     False
    SCSN-MP2        =     False
    SCS-CCSD        =     False

                Solving CC Amplitude Equations
                ------------------------------
  Iter             Energy              RMS        T1Diag      D1Diag    New D1Diag    D2Diag
  ----     ---------------------    ---------   ----------  ----------  ----------   --------
     0        -0.063071062976237    0.000e+00    0.002113    0.003660    0.003660    0.000000
     1        -0.070486695172505    2.440e-02    0.003735    0.005243    0.005243    0.000000
     2        -0.073420585450534    8.139e-03    0.004847    0.006999    0.006999    0.000000
     3        -0.073440300495438    1.757e-03    0.005123    0.007476    0.007476    0.000000
     4        -0.073469130201231    3.802e-04    0.005160    0.007552    0.007552    0.000000
     5        -0.073469296778631    5.685e-05    0.005159    0.007549    0.007549    0.000000
     6        -0.073468838539395    1.203e-05    0.005159    0.007548    0.007548    0.000000
     7        -0.073469029602987    3.253e-06    0.005159    0.007549    0.007549    0.000000
     8        -0.073469003873038    4.954e-07    0.005159    0.007549    0.007549    0.000000
     9        -0.073468998194234    5.651e-08    0.005159    0.007549    0.007549    0.000000
    10        -0.073468998461139    1.485e-08    0.005159    0.007549    0.007549    0.000000

    Iterations converged.


    Largest TIA Amplitudes:
              0   2         0.0272708651
              0   0         0.0253381357
              0   1         0.0211717115
              1  34         0.0055620468
              0   6         0.0050267944
              0   3         0.0027453153
              1  36         0.0022820253
              1  38         0.0019473393
              1  33        -0.0017469101
              1  32        -0.0016146733

    Largest Tia Amplitudes:
              0   0        -0.0343537788
              0   1        -0.0323929419
              0   2        -0.0237523941
              0   3        -0.0034886171
              0   6        -0.0023090347
              0   7        -0.0002393809
              0  11        -0.0000853448
              0   5         0.0000419886
              0  10        -0.0000245914

    Largest TIJAB Amplitudes:
      1   0  32   0        -0.0040363404
      1   0  33   1         0.0040013551
      1   0  45  22         0.0037942186
      1   0  52  15         0.0037942186
      1   0  34   0        -0.0026901125
      1   0  32   1         0.0024551235
      1   0  36   1        -0.0023481630
      1   0  33   3         0.0019406596
      1   0  34   2        -0.0017441852
      1   0  33   0        -0.0017009809

    Largest TIjAb Amplitudes:
      1   0   0  44        -0.0596431042
      1   0   1  44        -0.0534351131
      1   0   2  44        -0.0509698777
      0   0  32  44        -0.0407364718
      0   0  34  44        -0.0308203577
      0   0   1   1        -0.0245752567
      0   0  45  45        -0.0184003871
      0   0  52  52        -0.0184003871
      1   0  15  52        -0.0155959541
      1   0  22  45        -0.0155959541

    SCF energy       (wfn)                    =   -4.902803826243389
    Reference energy (file100)                =   -4.902803826243391

    Opposite-spin CCSD correlation energy     =   -0.063237284053748
    Same-spin CCSD correlation energy         =   -0.000497780219019
    Singles CCSD correlation energy           =   -0.009733934188373
    CCSD correlation energy                   =   -0.073468998461139
      * CCSD total energy                     =   -4.976272824704529


			**************************
			*                        *
			*         CCHBAR         *
			*                        *
			**************************


			**************************
			*        CCLAMBDA        *
			**************************


	Nuclear Rep. energy (wfn)     =    1.576392848027800
	Reference           (wfn)     =                    1
	SCF energy          (wfn)     =   -4.902803826243389
	Reference energy    (CC_INFO) =   -4.902803826243391
	CCSD energy         (CC_INFO) =   -0.073468998461139
	Total CCSD energy   (CC_INFO) =   -4.976272824704529

	Input parameters:
	-----------------
	Maxiter           =     50
	Convergence       = 1.0e-07
	Restart           =     No
	Cache Level       =     2
	Model III         =     No
	DIIS              =     Yes
	AO Basis          =     No
	ABCD              =     NEW
	Local CC          =     No
	Parameters for left-handed eigenvectors:
	    Irr   Root  Ground-State?    EOM energy        R0
	  1   0     0        Yes       0.0000000000   1.0000000000
	Labels for eigenvector 1:
	LIA 0 -1, Lia 0 -1, LIJAB 0 -1, Lijab 0 -1, LIjAb 0 -1, 2LIjAb - LIjbA 0 -1
	Deleting old CC_LAMBDA data.
	Symmetry of left-hand state: B1u
	Symmetry of left-hand eigenvector: Ag

	          Solving Lambda Equations
	          ------------------------
	Iter     PseudoEnergy or Norm         RMS  
	----     ---------------------     --------
	   0        -0.063460007426787    0.000e+00
	   1        -0.062550656928066    3.217e-03
	   2        -0.062344015389890    1.097e-03
	   3        -0.062262134135648    3.354e-04
	   4        -0.062255166542771    5.741e-05
	   5        -0.062253903542507    1.083e-05
	   6        -0.062253724240717    2.617e-06
	   7        -0.062253745712102    6.203e-07
	   8        -0.062253741164530    1.200e-07
	   9        -0.062253740364841    1.386e-08

	Largest LIA Amplitudes:
	          0   2         0.0282457540
	          0   0         0.0268634029
	          0   1         0.0226031670
	          1  34         0.0065684246
	          0   6         0.0051946456
	          0   3         0.0028607522
	          1  36         0.0024188044
	          1  38         0.0021730585
	          1  33        -0.0014223016
	          0   7         0.0008679769

	Largest Lia Amplitudes:
	          0   0        -0.0344391793
	          0   1        -0.0325916758
	          0   2        -0.0242297614
	          0   3        -0.0035351252
	          0   6        -0.0025019733
	          0   7        -0.0002792244
	          0   5         0.0000963859
	          0  11        -0.0000768022
	          0  10        -0.0000307504

	Largest LIJAB Amplitudes:
	  1   0  33   1         0.0038838296
	  1   0  32   0        -0.0037519978
	  1   0  45  22         0.0036733072
	  1   0  52  15         0.0036733072
	  1   0  32   1         0.0025201651
	  1   0  34   0        -0.0023022260
	  1   0  36   1        -0.0022078014
	  1   0  33   3         0.0018822937
	  1   0  33   0        -0.0016563790
	  1   0  46  22        -0.0015113415

	Largest LIjAb Amplitudes:
	  1   0   0  44        -0.0577292743
	  1   0   1  44        -0.0517900047
	  1   0   2  44        -0.0496111196
	  0   0  32  44        -0.0396332996
	  0   0  34  44        -0.0300577184
	  0   0   1   1        -0.0246907632
	  0   0  45  45        -0.0179423025
	  0   0  52  52        -0.0179423025
	  1   0  15  52        -0.0153368301
	  1   0  22  45        -0.0153368301

	Iterations converged.

	Overlap <L|e^T> =        0.97713757380

			**************************
			*                        *
			*        CCDENSITY       *
			*                        *
			**************************


	Input parameters:
	-----------------
	Wave function    =   CCSD
	Reference wfn    =  ROHF
	Dertype          = 0
	Tolerance        = 1.0e-14
	Cache Level      = 2
	AO Basis         = No
	OPDM Only        = Yes
	Relax OPDM       = No
	Compute Xi       = No
	Use Zeta         = No
	Xi connected     = Yes
	Compute NO       = No

	Nuclear Rep. energy (wfn)     =    1.576392848027800
	SCF energy          (wfn)     =   -4.902803826243389
	Reference energy    (file100) =   -4.902803826243391
	CCSD energy         (CC_INFO) =   -0.073468998461139
	Total CCSD energy   (CC_INFO) =   -4.976272824704529
	Number of States = 1

	Ground?  State     EOM Energy       R0
	  Yes     0 Ag    0.0000000000   1.00000000


Properties will be evaluated at   0.000000,   0.000000,   0.000000 [a0]

Properties computed using the CCSD density matrix

  Natural Orbital Occupations:

  Alpha Occupations:
  HONO-1 :    1 Ag    0.994
  HONO-0 :    1B1u    0.988
  LUNO+0 :    2 Ag    0.010
  LUNO+1 :    2B1u    0.004
  LUNO+2 :    3 Ag    0.001
  LUNO+3 :    1B2u    0.001

  Beta Occupations:
  HONO-0 :    1 Ag    0.982
  LUNO+0 :    1B1u    0.012
  LUNO+1 :    2 Ag    0.002
  LUNO+2 :    3 Ag    0.001
  LUNO+3 :    1B2u    0.001

  Total Occupations:
  HONO-0 :    1 Ag    1.971
  LUNO+0 :    1B1u    1.000
  LUNO+1 :    2 Ag    0.017
  LUNO+2 :    2B1u    0.004
  LUNO+3 :    3 Ag    0.002


    Psi4 stopped on: Friday, 06 June 2025 12:13AM
    Psi4 wall time for execution: 0:00:01.79

*** Psi4 exiting successfully. Buy a developer a beer!
