
    -----------------------------------------------------------------------
          Psi4: An Open-Source Ab Initio Electronic Structure Package
                               Psi4 1.9.1 release

                         Git: Rev {} zzzzzzz 


    D. G. A. Smith, L. A. Burns, A. C. Simmonett, R. M. Parrish,
    M. C. Schieber, R. Galvelis, P. Kraus, H. Kruse, R. Di Remigio,
    A. Alenaizan, A. M. James, S. Lehtola, J. P. Misiewicz, M. Scheurer,
    R. A. Shaw, J. B. Schriber, Y. Xie, Z. L. Glick, D. A. Sirianni,
    J. S. O'Brien, J. M. Waldrop, A. Kumar, E. G. Hohenstein,
    B. P. Pritchard, B. R. Brooks, H. F. Schaefer III, A. Yu. Sokolov,
    K. Patkowski, A. E. DePrince III, U. Bozkaya, R. A. King,
    F. A. Evangelista, J. M. Turney, T. D. Crawford, C. D. Sherrill,
    J. Chem. Phys. 152(18) 184108 (2020). https://doi.org/10.1063/5.0006002

                            Additional Code Authors
    E. T. Seidl, C. L. Janssen, E. F. Valeev, M. L. Leininger,
    J. F. Gonthier, R. M. Richard, H. R. McAlexander, M. Saitow, X. Wang,
    P. Verma, M. H. Lechner, A. Jiang, S. Behnle, A. G. Heide,
    M. F. Herbst, and D. L. Poole

             Previous Authors, Complete List of Code Contributors,
                       and Citations for Specific Modules
    https://github.com/psi4/psi4/blob/master/codemeta.json
    https://github.com/psi4/psi4/graphs/contributors
    http://psicode.org/psi4manual/master/introduction.html#citing-psifour

    -----------------------------------------------------------------------


    Psi4 started on: Friday, 06 June 2025 12:14AM

    Process ID: 3074915
    Host:       nh031
    PSIDATADIR: /software-nas/eb2024/easybuild/software/rocky/8.9/intel/cascadelake/software/PSI4/1.9.1-foss-2023b/share/psi4
    Memory:     500.0 MiB
    Threads:    40
    
  ==> Input File <==

--------------------------------------------------------------------------
memory 100Gb

molecule{
0 3
B     0.000000  0.000000  -0.775950
N     0.000000  0.000000  0.554250
}

set reference rohf

properties("CCSD/def2-QZVP", properties=["NO_OCCUPATIONS"])
--------------------------------------------------------------------------

  Memory set to  93.132 GiB by Python driver.
   => Libint2 <=

    Primary   basis highest AM E, G, H:  5, 4, 3
    Auxiliary basis highest AM E, G, H:  6, 5, 4
    Onebody   basis highest AM E, G, H:  6, 5, 4
    Solid Harmonics ordering:            Gaussian

*** tstart() called on nh031
*** at Fri Jun  6 00:14:28 2025

   => Loading Basis Set <=

    Name: DEF2-QZVP
    Role: ORBITAL
    Keyword: BASIS
    atoms 1 entry B          line   146 file /software-nas/eb2024/easybuild/software/rocky/8.9/intel/cascadelake/software/PSI4/1.9.1-foss-2023b/share/psi4/basis/def2-qzvp.gbs 
    atoms 2 entry N          line   242 file /software-nas/eb2024/easybuild/software/rocky/8.9/intel/cascadelake/software/PSI4/1.9.1-foss-2023b/share/psi4/basis/def2-qzvp.gbs 


         ---------------------------------------------------------
                                   SCF
               by Justin Turney, Rob Parrish, Andy Simmonett
                          and Daniel G. A. Smith
                             ROHF Reference
                       40 Threads,  95367 MiB Core
         ---------------------------------------------------------

  ==> Geometry <==

    Molecular point group: c2v
    Full point group: C_inf_v

    Geometry (in Angstrom), charge = 0, multiplicity = 3:

       Center              X                  Y                   Z               Mass       
    ------------   -----------------  -----------------  -----------------  -----------------
         B            0.000000000000     0.000000000000    -0.744706801752    11.009305360000
         N            0.000000000000     0.000000000000     0.585493198248    14.003074004430

  Running in c2v symmetry.

  Rotational constants: A = ************  B =      1.54573  C =      1.54573 [cm^-1]
  Rotational constants: A = ************  B =  46339.89204  C =  46339.89204 [MHz]
  Nuclear repulsion =   13.923622292474816

  Charge       = 0
  Multiplicity = 3
  Electrons    = 12
  Nalpha       = 7
  Nbeta        = 5

  ==> Algorithm <==

  SCF Algorithm Type is PK.
  DIIS enabled.
  MOM disabled.
  Fractional occupation disabled.
  Guess Type is SAD.
  Energy threshold   = 1.00e-10
  Density threshold  = 1.00e-10
  Integral threshold = 1.00e-12

  ==> Primary Basis <==

  Basis Set: DEF2-QZVP
    Blend: DEF2-QZVP
    Number of shells: 34
    Number of basis functions: 114
    Number of Cartesian functions: 144
    Spherical Harmonics?: true
    Max angular momentum: 4

  ==> Integral Setup <==

  Using in-core PK algorithm.
   Calculation information:
      Number of atoms:                   2
      Number of AO shells:              34
      Number of primitives:             58
      Number of atomic orbitals:       144
      Number of basis functions:       114

      Integral cutoff                 1.00e-12
      Number of threads:                40

  Performing in-core PK
  Using 42974580 doubles for integral storage.
  We computed 709441 shell quartets total.
  Whereas there are 177310 unique shell quartets.
   300.11 percent of shell quartets recomputed by reordering.

  ==> DiskJK: Disk-Based J/K Matrices <==

    J tasked:                  Yes
    K tasked:                  Yes
    wK tasked:                  No
    Memory [MiB]:            71525
    Schwarz Cutoff:          1E-12

    OpenMP threads:             40

  Minimum eigenvalue in the overlap matrix is 1.4734607396E-04.
  Reciprocal condition number of the overlap matrix is 2.6694165368E-05.
    Using symmetric orthogonalization.

  ==> Pre-Iterations <==

  SCF Guess: Superposition of Atomic Densities via on-the-fly atomic UHF (no occupation information).

   -------------------------
    Irrep   Nso     Nmo    
   -------------------------
     A1        48      48 
     A2        14      14 
     B1        26      26 
     B2        26      26 
   -------------------------
    Total     114     114
   -------------------------

  ==> Iterations <==

                        Total Energy        Delta E     RMS |[F,P]|

   @ROHF iter SAD:   -77.88991598169804   -7.78899e+01   0.00000e+00 
   @ROHF iter   1:   -78.94570749689248   -1.05579e+00   4.58338e-03 DIIS
   @ROHF iter   2:   -78.92340266545521    2.23048e-02   5.16315e-03 DIIS
   @ROHF iter   3:   -79.01347384522069   -9.00712e-02   4.88763e-04 DIIS
   @ROHF iter   4:   -79.01528507946972   -1.81123e-03   1.57024e-04 DIIS
   @ROHF iter   5:   -79.01560492884876   -3.19849e-04   5.74055e-05 DIIS
   @ROHF iter   6:   -79.01565336671226   -4.84379e-05   2.98366e-05 DIIS
   @ROHF iter   7:   -79.01566738373251   -1.40170e-05   1.25067e-05 DIIS
   @ROHF iter   8:   -79.01567026358629   -2.87985e-06   4.88932e-06 DIIS
   @ROHF iter   9:   -79.01567068113010   -4.17544e-07   1.71743e-06 DIIS
   @ROHF iter  10:   -79.01567072755010   -4.64200e-08   3.46611e-07 DIIS
   @ROHF iter  11:   -79.01567072829886   -7.48756e-10   4.87575e-08 DIIS
   @ROHF iter  12:   -79.01567072832214   -2.32774e-11   1.02664e-08 DIIS
   @ROHF iter  13:   -79.01567072832327   -1.13687e-12   2.24909e-09 DIIS
   @ROHF iter  14:   -79.01567072832330   -2.84217e-14   5.67063e-10 DIIS
   @ROHF iter  15:   -79.01567072832324    5.68434e-14   1.19912e-10 DIIS
   @ROHF iter  16:   -79.01567072832331   -7.10543e-14   3.78772e-11 DIIS
  Energy and wave function converged.


  ==> Post-Iterations <==

    Orbital Energies [Eh]
    ---------------------

    Doubly Occupied:                                                      

       1A1   -15.591403     2A1    -7.695641     3A1    -1.076590  
       4A1    -0.540452     1B1    -0.431211  

    Singly Occupied:                                                      

       5A1    -0.237938     1B2    -0.224304  

    Virtual:                                                              

       2B1     0.091683     2B2     0.093573     6A1     0.114040  
       7A1     0.153429     3B1     0.191485     3B2     0.197591  
       8A1     0.325318     1A2     0.386007     9A1     0.386163  
       4B2     0.397090     4B1     0.398439    10A1     0.437927  
       5B2     0.511251     5B1     0.516044    11A1     0.541577  
       6B2     0.624628     6B1     0.629251    12A1     0.678337  
      13A1     0.871531     2A2     0.991625    14A1     0.991644  
      15A1     1.129242     7B2     1.196523     7B1     1.200239  
       8B2     1.201036     8B1     1.205638    16A1     1.296706  
       3A2     1.296773     9B2     1.323147     9B1     1.331013  
      17A1     1.354768     4A2     1.440438    18A1     1.440886  
      19A1     1.457063    10B2     1.468743    10B1     1.482488  
      20A1     1.729427    11B2     1.770481    11B1     1.781107  
      21A1     1.880716    12B2     2.216075    12B1     2.228304  
      22A1     2.540723    13B2     2.718732    13B1     2.718767  
      23A1     2.920088     5A2     2.920719    24A1     2.976496  
      14B2     3.142451    14B1     3.159815    25A1     3.294868  
       6A2     3.294870     7A2     3.378446    26A1     3.378446  
      15B2     3.574051    15B1     3.574730    27A1     3.588176  
      16B2     3.589217    16B1     3.605278    28A1     3.841645  
       8A2     3.841827    17B2     3.910914    17B1     3.924699  
      29A1     3.925004    18B2     3.926605    18B1     3.926741  
       9A2     3.933016    30A1     3.934865    31A1     3.993729  
      19B2     4.312407    19B1     4.330382    20B2     4.340342  
      20B1     4.356315    32A1     4.377765    10A2     4.378079  
      33A1     4.496853    34A1     4.761651    35A1     5.471492  
      21B2     5.800623    21B1     5.822199    36A1     6.906616  
      37A1     7.228440    11A2     7.228440    22B2     7.415287  
      22B1     7.415292    38A1     7.931266    12A2     7.933265  
      23B2     8.089293    39A1     8.095866    23B1     8.116895  
      24B2     8.931528    24B1     8.931539    40A1     9.265091  
      13A2     9.265642    41A1     9.585618    14A2     9.585928  
      25B2     9.592420    42A1     9.600940    25B1     9.619361  
      26B2    10.440111    26B1    10.464059    43A1    10.488018  
      44A1    11.326460    45A1    19.983277    46A1    38.109663  
      47A1   103.899906    48A1   198.956953  

    Final Occupation by Irrep:
             A1    A2    B1    B2 
    DOCC [     4,    0,    1,    0 ]
    SOCC [     1,    0,    0,    1 ]
    NA   [     5,    0,    1,    1 ]
    NB   [     4,    0,    1,    0 ]

  @ROHF Final Energy:   -79.01567072832331

   => Energetics <=

    Nuclear Repulsion Energy =             13.9236222924748159
    One-Electron Energy =                -134.1899692499665946
    Two-Electron Energy =                  41.2506762291684623
    Total Energy =                        -79.0156707283233146

Computation Completed


Properties will be evaluated at   0.000000,   0.000000,   0.000000 [a0]

Properties computed using the SCF density matrix


 Multipole Moments:

 ------------------------------------------------------------------------------------
     Multipole            Electronic (a.u.)      Nuclear  (a.u.)        Total (a.u.)
 ------------------------------------------------------------------------------------

 L = 1.  Multiply by 2.5417464519 to convert [e a0] to [Debye]
 Dipole X            :          0.0000000            0.0000000            0.0000000
 Dipole Y            :          0.0000000            0.0000000            0.0000000
 Dipole Z            :         -1.8509042            0.7084931           -1.1424111
 Magnitude           :                                                    1.1424111

 ------------------------------------------------------------------------------------

*** tstop() called on nh031 at Fri Jun  6 00:14:34 2025
Module time:
	user time   =      45.00 seconds =       0.75 minutes
	system time =       1.00 seconds =       0.02 minutes
	total time  =          6 seconds =       0.10 minutes
Total time:
	user time   =      45.00 seconds =       0.75 minutes
	system time =       1.00 seconds =       0.02 minutes
	total time  =          6 seconds =       0.10 minutes
 MINTS: Wrapper to libmints.
   by Justin Turney

   Calculation information:
      Number of threads:                40
      Number of atoms:                   2
      Number of AO shells:              34
      Number of SO shells:              34
      Number of primitives:             58
      Number of atomic orbitals:       144
      Number of basis functions:       114

      Number of irreps:                  4
      Integral cutoff                 1.00e-12
      Number of functions per irrep: [  48   14   26   26 ]

 OEINTS: Overlap, kinetic, potential, dipole, and quadrupole integrals
         stored in file 35.

      Computing two-electron integrals...done
      Computed 3882917 non-zero two-electron integrals.
        Stored in file 33.


*** tstart() called on nh031
*** at Fri Jun  6 00:14:36 2025


	Wfn Parameters:
	--------------------
	Wavefunction         = CCSD
	Number of irreps     = 4
	Number of MOs        = 114
	Number of active MOs = 114
	AO-Basis             = NONE
	Semicanonical        = false
	Reference            = ROHF
	Print Level          = 1

	IRREP	# MOs	# FZDC	# DOCC	# SOCC	# VIRT	# FZVR
	-----	-----	------	------	------	------	------
	 A1	   48	    0	    4	    1	    43	    0
	 A2	   14	    0	    0	    0	    14	    0
	 B1	   26	    0	    1	    0	    25	    0
	 B2	   26	    0	    0	    1	    25	    0
	Transforming integrals...
	IWL integrals will be deleted.
	(OO|OO)...
	Presorting SO-basis two-electron integrals.
	Sorting File: SO Ints (nn|nn) nbuckets = 1
	Constructing frozen core operators
	Starting first half-transformation.
	Sorting half-transformed integrals.
	First half integral transformation complete.
	Starting second half-transformation.
	Two-electron integral transformation complete.
	(OO|OV)...
	Starting second half-transformation.
	Two-electron integral transformation complete.
	(OO|VV)...
	Starting second half-transformation.
	Two-electron integral transformation complete.
	(OV|OO)...
	Starting first half-transformation.
	Sorting half-transformed integrals.
	First half integral transformation complete.
	Starting second half-transformation.
	Two-electron integral transformation complete.
	(OV|OV)...
	Starting second half-transformation.
	Two-electron integral transformation complete.
	(OV|VV)...
	Starting second half-transformation.
	Two-electron integral transformation complete.
	(VV|OO)...
	Starting first half-transformation.
	Sorting half-transformed integrals.
	First half integral transformation complete.
	Starting second half-transformation.
	Two-electron integral transformation complete.
	(VV|OV)...
	Starting second half-transformation.
	Two-electron integral transformation complete.
	(VV|VV)...
	Starting second half-transformation.
	Two-electron integral transformation complete.
	Frozen core energy     =      0.00000000000000

	Size of irrep 0 of <ab|cd> integrals:     11.785 (MW) /     94.284 (MB)
	Size of irrep 1 of <ab|cd> integrals:      6.411 (MW) /     51.288 (MB)
	Size of irrep 2 of <ab|cd> integrals:      8.573 (MW) /     68.585 (MB)
	Size of irrep 3 of <ab|cd> integrals:      8.928 (MW) /     71.425 (MB)
	Total:                                    35.698 (MW) /    285.583 (MB)

	Size of irrep 0 of <ia|bc> integrals:      0.930 (MW) /      7.443 (MB)
	Size of irrep 1 of <ia|bc> integrals:      0.306 (MW) /      2.451 (MB)
	Size of irrep 2 of <ia|bc> integrals:      0.536 (MW) /      4.287 (MB)
	Size of irrep 3 of <ia|bc> integrals:      0.562 (MW) /      4.494 (MB)
	Total:                                     2.334 (MW) /     18.674 (MB)

	Size of irrep 0 of tIjAb amplitudes:       0.093 (MW) /      0.742 (MB)
	Size of irrep 1 of tIjAb amplitudes:       0.005 (MW) /      0.041 (MB)
	Size of irrep 2 of tIjAb amplitudes:       0.029 (MW) /      0.234 (MB)
	Size of irrep 3 of tIjAb amplitudes:       0.030 (MW) /      0.239 (MB)
	Total:                                     0.157 (MW) /      1.255 (MB)

	Nuclear Rep. energy          =     13.92362229247482
	SCF energy                   =    -79.01567072832331
	One-electron energy          =   -134.18996925560015
	Two-electron (AA) energy     =     10.30465890750952
	Two-electron (BB) energy     =      5.55051796557629
	Two-electron (AB) energy     =     25.39549936171608
	Two-electron energy          =    -92.93929302079826
	Reference energy             =    -79.01567072832344

*** tstop() called on nh031 at Fri Jun  6 00:14:38 2025
Module time:
	user time   =       2.39 seconds =       0.04 minutes
	system time =       0.59 seconds =       0.01 minutes
	total time  =          2 seconds =       0.03 minutes
Total time:
	user time   =      49.30 seconds =       0.82 minutes
	system time =       1.81 seconds =       0.03 minutes
	total time  =         10 seconds =       0.17 minutes
            **************************
            *                        *
            *        CCENERGY        *
            *                        *
            **************************

    Nuclear Rep. energy (wfn)     =   13.923622292474816
    SCF energy          (wfn)     =  -79.015670728323315
    Reference energy    (file100) =  -79.015670728323443

    Input parameters:
    -----------------
    Wave function   =     CCSD
    Reference wfn   =     ROHF
    Brueckner       =     No
    Memory (Mbytes) =     100000.0
    Maxiter         =     50
    R_Convergence   =     1.0e-07
    E_Convergence   =     1.0e-08
    Restart         =     Yes
    DIIS            =     Yes
    AO Basis        =     NONE
    ABCD            =     NEW
    Cache Level     =     2
    Cache Type      =     LOW
    Print Level     =     1
    Num. of threads =     40
    # Amps to Print =     10
    Print MP2 Amps? =     No
    Analyze T2 Amps =     No
    Print Pair Ener =     No
    Local CC        =     No
    SCS-MP2         =     False
    SCSN-MP2        =     False
    SCS-CCSD        =     False

                Solving CC Amplitude Equations
                ------------------------------
  Iter             Energy              RMS        T1Diag      D1Diag    New D1Diag    D2Diag
  ----     ---------------------    ---------   ----------  ----------  ----------   --------
     0        -0.286017563165801    0.000e+00    0.000144    0.000397    0.000397    0.000000
     1        -0.291102927705662    7.929e-02    0.013464    0.029351    0.029351    0.000000
     2        -0.299119793916162    3.160e-02    0.015010    0.032010    0.032010    0.000000
     3        -0.302404392823798    2.557e-02    0.020455    0.039882    0.049122    0.000000
     4        -0.302530928240195    1.140e-02    0.023751    0.043384    0.060547    0.000000
     5        -0.302587748278393    7.604e-03    0.025897    0.049806    0.070437    0.000000
     6        -0.302887096925584    3.691e-03    0.027340    0.054604    0.077221    0.000000
     7        -0.302908928382530    1.767e-03    0.027811    0.056480    0.079874    0.000000
     8        -0.302918523710434    7.164e-04    0.028042    0.057225    0.080928    0.000000
     9        -0.302912450688668    2.982e-04    0.028110    0.057434    0.081224    0.000000
    10        -0.302912659794571    1.189e-04    0.028131    0.057496    0.081311    0.000000
    11        -0.302914209209820    4.966e-05    0.028142    0.057525    0.081352    0.000000
    12        -0.302914633749164    2.416e-05    0.028141    0.057521    0.081347    0.000000
    13        -0.302914981483248    1.149e-05    0.028144    0.057527    0.081355    0.000000
    14        -0.302914722724768    5.248e-06    0.028143    0.057525    0.081353    0.000000
    15        -0.302914748599749    2.472e-06    0.028144    0.057527    0.081355    0.000000
    16        -0.302914800166620    9.745e-07    0.028144    0.057527    0.081356    0.000000
    17        -0.302914828072765    5.249e-07    0.028144    0.057528    0.081357    0.000000
    18        -0.302914840904159    2.167e-07    0.028144    0.057528    0.081357    0.000000
    19        -0.302914839469479    1.164e-07    0.028144    0.057528    0.081357    0.000000
    20        -0.302914838501241    5.639e-08    0.028144    0.057528    0.081357    0.000000

    Iterations converged.


    Largest TIA Amplitudes:
              5  59         0.0480220441
              6  84         0.0244623973
              5  58         0.0242746099
              5  62         0.0191632478
              4   1        -0.0147624048
              6  83         0.0144244575
              4   4         0.0143468850
              2   8        -0.0142739552
              4   7         0.0132165307
              5  66        -0.0119941338

    Largest Tia Amplitudes:
              3  43         0.1150451611
              3   2        -0.0168056620
              5  59         0.0134422230
              3   4         0.0125992706
              3   7         0.0125902372
              5  66        -0.0123926367
              2   8         0.0100349846
              5  62         0.0088654622
              5  60        -0.0080950187
              3   1        -0.0075571037

    Largest TIJAB Amplitudes:
      6   5  84  59        -0.0249385750
      6   5  84  58        -0.0194376836
      6   5  83  58        -0.0185867670
      6   5  83  59        -0.0167933468
      6   5  85  58        -0.0156765690
      6   4  84   7         0.0149473060
      5   4  59   7         0.0144223131
      6   5  85  60        -0.0138146463
      6   5  45   8        -0.0131897772
      6   5  83  60        -0.0130751576

    Largest Tijab Amplitudes:
      5   3  58  43        -0.0180605608
      5   3  59  43        -0.0157876798
      5   3  60  43        -0.0131484226
      5   2 108  45         0.0115332920
      5   3  59   7        -0.0114707354
      3   2 108  84         0.0105546478
      5   3  58   7        -0.0088016183
      5   2 108  44        -0.0082568917
      5   3  60   2         0.0079392518
      3   2 108  88        -0.0074921298

    Largest TIjAb Amplitudes:
      5   5  59  59        -0.0467168946
      4   5  59  43        -0.0419731418
      5   5  58  58        -0.0407801388
      5   5  59  58        -0.0390939647
      5   5  58  59        -0.0378245748
      4   5  58  43        -0.0345512481
      6   3  84  43        -0.0328214924
      5   3  59  43        -0.0327865365
      5   3  58  43        -0.0320057938
      6   5  84  59        -0.0301036586

    SCF energy       (wfn)                    =  -79.015670728323315
    Reference energy (file100)                =  -79.015670728323443

    Opposite-spin CCSD correlation energy     =   -0.240810947357854
    Same-spin CCSD correlation energy         =   -0.059250206429422
    Singles CCSD correlation energy           =   -0.002853684713965
    CCSD correlation energy                   =   -0.302914838501241
      * CCSD total energy                     =  -79.318585566824680


			**************************
			*                        *
			*         CCHBAR         *
			*                        *
			**************************


			**************************
			*        CCLAMBDA        *
			**************************


	Nuclear Rep. energy (wfn)     =   13.923622292474816
	Reference           (wfn)     =                    1
	SCF energy          (wfn)     =  -79.015670728323315
	Reference energy    (CC_INFO) =  -79.015670728323443
	CCSD energy         (CC_INFO) =   -0.302914838501241
	Total CCSD energy   (CC_INFO) =  -79.318585566824680

	Input parameters:
	-----------------
	Maxiter           =     50
	Convergence       = 1.0e-07
	Restart           =     No
	Cache Level       =     2
	Model III         =     No
	DIIS              =     Yes
	AO Basis          =     No
	ABCD              =     NEW
	Local CC          =     No
	Parameters for left-handed eigenvectors:
	    Irr   Root  Ground-State?    EOM energy        R0
	  1   0     0        Yes       0.0000000000   1.0000000000
	Labels for eigenvector 1:
	LIA 0 -1, Lia 0 -1, LIJAB 0 -1, Lijab 0 -1, LIjAb 0 -1, 2LIjAb - LIjbA 0 -1
	Deleting old CC_LAMBDA data.
	Symmetry of left-hand state: B2
	Symmetry of left-hand eigenvector: A1

	          Solving Lambda Equations
	          ------------------------
	Iter     PseudoEnergy or Norm         RMS  
	----     ---------------------     --------
	   0        -0.300246175663867    0.000e+00
	   1        -0.288335478457505    3.907e-02
	   2        -0.286950420108543    1.003e-02
	   3        -0.286457661291465    6.792e-03
	   4        -0.286223668396653    2.807e-03
	   5        -0.286265895357909    1.511e-03
	   6        -0.286254934544243    8.872e-04
	   7        -0.286242732961213    5.017e-04
	   8        -0.286254221501475    2.103e-04
	   9        -0.286253341369373    1.049e-04
	  10        -0.286254565630909    4.570e-05
	  11        -0.286253911448896    1.868e-05
	  12        -0.286254082465358    6.361e-06
	  13        -0.286254251645245    3.387e-06
	  14        -0.286254270382183    1.820e-06
	  15        -0.286254301772066    9.770e-07
	  16        -0.286254305112645    4.642e-07
	  17        -0.286254305121590    1.965e-07
	  18        -0.286254309340237    8.007e-08

	Largest LIA Amplitudes:
	          5  59         0.0311993627
	          4   1        -0.0193669527
	          4   7         0.0175920341
	          4   4         0.0172512416
	          2   8        -0.0143441415
	          5  62         0.0142733293
	          4   2        -0.0133538027
	          2   7        -0.0129980373
	          3   2         0.0118626450
	          5  60        -0.0107844102

	Largest Lia Amplitudes:
	          3  43         0.0855863842
	          3   2        -0.0156909393
	          5  60        -0.0107028628
	          2   8         0.0105361127
	          5  66        -0.0099947388
	          3   7         0.0096733531
	          3   4         0.0086398712
	          5  58        -0.0085314089
	          3   1        -0.0069185219
	          2   3        -0.0060141741

	Largest LIJAB Amplitudes:
	  6   5  84  59        -0.0219038196
	  6   5  84  58        -0.0167363549
	  6   5  83  58        -0.0161136629
	  6   5  83  59        -0.0147360323
	  6   5  85  58        -0.0141023774
	  6   4  84   7         0.0136822064
	  5   4  59   7         0.0135710002
	  6   5  85  60        -0.0127776278
	  6   5  45   8        -0.0127114782
	  5   3  59   7        -0.0116024927

	Largest Lijab Amplitudes:
	  5   3  58  43        -0.0175051539
	  5   3  59  43        -0.0156069617
	  5   3  60  43        -0.0126866590
	  5   2 108  45         0.0110230573
	  5   3  59   7        -0.0104900111
	  3   2 108  84         0.0098853481
	  5   3  58   7        -0.0080009018
	  5   2 108  44        -0.0076855823
	  5   3  60   2         0.0075825178
	  3   2 108  88        -0.0070443259

	Largest LIjAb Amplitudes:
	  5   5  59  59        -0.0424251123
	  4   5  59  43        -0.0376771786
	  5   5  58  58        -0.0370241766
	  5   5  59  58        -0.0356768223
	  5   5  58  59        -0.0342294958
	  4   5  58  43        -0.0315668255
	  6   3  84  43        -0.0296899251
	  5   3  58  43        -0.0290182569
	  5   3  59  43        -0.0288455158
	  5   5  58  60        -0.0270087391

	Iterations converged.

	Overlap <L|e^T> =        0.88091388939

			**************************
			*                        *
			*        CCDENSITY       *
			*                        *
			**************************


	Input parameters:
	-----------------
	Wave function    =   CCSD
	Reference wfn    =  ROHF
	Dertype          = 0
	Tolerance        = 1.0e-14
	Cache Level      = 2
	AO Basis         = No
	OPDM Only        = Yes
	Relax OPDM       = No
	Compute Xi       = No
	Use Zeta         = No
	Xi connected     = Yes
	Compute NO       = No

	Nuclear Rep. energy (wfn)     =   13.923622292474816
	SCF energy          (wfn)     =  -79.015670728323315
	Reference energy    (file100) =  -79.015670728323443
	CCSD energy         (CC_INFO) =   -0.302914838501241
	Total CCSD energy   (CC_INFO) =  -79.318585566824680
	Number of States = 1

	Ground?  State     EOM Energy       R0
	  Yes     0 A1    0.0000000000   1.00000000


Properties will be evaluated at   0.000000,   0.000000,   0.000000 [a0]

Properties computed using the CCSD density matrix

  Natural Orbital Occupations:

  Alpha Occupations:
  HONO-2 :    5 A1    0.979
  HONO-1 :    1 B2    0.973
  HONO-0 :    1 B1    0.965
  LUNO+0 :    2 B1    0.032
  LUNO+1 :    2 B2    0.025
  LUNO+2 :    6 A1    0.011
  LUNO+3 :    7 A1    0.006

  Beta Occupations:
  HONO-2 :    3 A1    0.982
  HONO-1 :    4 A1    0.966
  HONO-0 :    1 B1    0.960
  LUNO+0 :    2 B1    0.027
  LUNO+1 :    5 A1    0.020
  LUNO+2 :    1 B2    0.011
  LUNO+3 :    6 A1    0.006

  Total Occupations:
  HONO-2 :    3 A1    1.969
  HONO-1 :    4 A1    1.945
  HONO-0 :    1 B1    1.924
  LUNO+0 :    5 A1    0.996
  LUNO+1 :    1 B2    0.983
  LUNO+2 :    2 B1    0.059
  LUNO+3 :    2 B2    0.030


    Psi4 stopped on: Friday, 06 June 2025 12:15AM
    Psi4 wall time for execution: 0:00:36.01

*** Psi4 exiting successfully. Buy a developer a beer!
