
    -----------------------------------------------------------------------
          Psi4: An Open-Source Ab Initio Electronic Structure Package
                               Psi4 1.9.1 release

                         Git: Rev {} zzzzzzz 


    D. G. A. Smith, L. A. Burns, A. C. Simmonett, R. M. Parrish,
    M. C. Schieber, R. Galvelis, P. Kraus, H. Kruse, R. Di Remigio,
    A. Alenaizan, A. M. James, S. Lehtola, J. P. Misiewicz, M. Scheurer,
    R. A. Shaw, J. B. Schriber, Y. Xie, Z. L. Glick, D. A. Sirianni,
    J. S. O'Brien, J. M. Waldrop, A. Kumar, E. G. Hohenstein,
    B. P. Pritchard, B. R. Brooks, H. F. Schaefer III, A. Yu. Sokolov,
    K. Patkowski, A. E. DePrince III, U. Bozkaya, R. A. King,
    F. A. Evangelista, J. M. Turney, T. D. Crawford, C. D. Sherrill,
    J. Chem. Phys. 152(18) 184108 (2020). https://doi.org/10.1063/5.0006002

                            Additional Code Authors
    E. T. Seidl, C. L. Janssen, E. F. Valeev, M. L. Leininger,
    J. F. Gonthier, R. M. Richard, H. R. McAlexander, M. Saitow, X. Wang,
    P. Verma, M. H. Lechner, A. Jiang, S. Behnle, A. G. Heide,
    M. F. Herbst, and D. L. Poole

             Previous Authors, Complete List of Code Contributors,
                       and Citations for Specific Modules
    https://github.com/psi4/psi4/blob/master/codemeta.json
    https://github.com/psi4/psi4/graphs/contributors
    http://psicode.org/psi4manual/master/introduction.html#citing-psifour

    -----------------------------------------------------------------------


    Psi4 started on: Friday, 06 June 2025 12:14AM

    Process ID: 3355492
    Host:       nh006
    PSIDATADIR: /software-nas/eb2024/easybuild/software/rocky/8.9/intel/cascadelake/software/PSI4/1.9.1-foss-2023b/share/psi4
    Memory:     500.0 MiB
    Threads:    40
    
  ==> Input File <==

--------------------------------------------------------------------------
memory 100Gb

molecule{
0 1
C     0.000000  0.000000  0.620000
C     0.000000  0.000000  -0.620000
}

set reference rhf

properties("CCSD/def2-QZVP", properties=["NO_OCCUPATIONS"])
--------------------------------------------------------------------------

  Memory set to  93.132 GiB by Python driver.
   => Libint2 <=

    Primary   basis highest AM E, G, H:  5, 4, 3
    Auxiliary basis highest AM E, G, H:  6, 5, 4
    Onebody   basis highest AM E, G, H:  6, 5, 4
    Solid Harmonics ordering:            Gaussian

*** tstart() called on nh006
*** at Fri Jun  6 00:14:29 2025

   => Loading Basis Set <=

    Name: DEF2-QZVP
    Role: ORBITAL
    Keyword: BASIS
    atoms 1-2 entry C          line   194 file /software-nas/eb2024/easybuild/software/rocky/8.9/intel/cascadelake/software/PSI4/1.9.1-foss-2023b/share/psi4/basis/def2-qzvp.gbs 


         ---------------------------------------------------------
                                   SCF
               by Justin Turney, Rob Parrish, Andy Simmonett
                          and Daniel G. A. Smith
                              RHF Reference
                       40 Threads,  95367 MiB Core
         ---------------------------------------------------------

  ==> Geometry <==

    Molecular point group: d2h
    Full point group: D_inf_h

    Geometry (in Angstrom), charge = 0, multiplicity = 1:

       Center              X                  Y                   Z               Mass       
    ------------   -----------------  -----------------  -----------------  -----------------
         C            0.000000000000     0.000000000000     0.620000000000    12.000000000000
         C            0.000000000000     0.000000000000    -0.620000000000    12.000000000000

  Running in d2h symmetry.

  Rotational constants: A = ************  B =      1.82727  C =      1.82727 [cm^-1]
  Rotational constants: A = ************  B =  54780.06946  C =  54780.06946 [MHz]
  Nuclear repulsion =   15.363209342032258

  Charge       = 0
  Multiplicity = 1
  Electrons    = 12
  Nalpha       = 6
  Nbeta        = 6

  ==> Algorithm <==

  SCF Algorithm Type is PK.
  DIIS enabled.
  MOM disabled.
  Fractional occupation disabled.
  Guess Type is SAD.
  Energy threshold   = 1.00e-10
  Density threshold  = 1.00e-10
  Integral threshold = 1.00e-12

  ==> Primary Basis <==

  Basis Set: DEF2-QZVP
    Blend: DEF2-QZVP
    Number of shells: 34
    Number of basis functions: 114
    Number of Cartesian functions: 144
    Spherical Harmonics?: true
    Max angular momentum: 4

  ==> Integral Setup <==

  Using in-core PK algorithm.
   Calculation information:
      Number of atoms:                   2
      Number of AO shells:              34
      Number of primitives:             58
      Number of atomic orbitals:       144
      Number of basis functions:       114

      Integral cutoff                 1.00e-12
      Number of threads:                40

  Performing in-core PK
  Using 42974580 doubles for integral storage.
  We computed 711391 shell quartets total.
  Whereas there are 177310 unique shell quartets.
   301.21 percent of shell quartets recomputed by reordering.

  ==> DiskJK: Disk-Based J/K Matrices <==

    J tasked:                  Yes
    K tasked:                  Yes
    wK tasked:                  No
    Memory [MiB]:            71525
    Schwarz Cutoff:          1E-12

    OpenMP threads:             40

  Minimum eigenvalue in the overlap matrix is 1.4361392395E-04.
  Reciprocal condition number of the overlap matrix is 2.5795167483E-05.
    Using symmetric orthogonalization.

  ==> Pre-Iterations <==

  SCF Guess: Superposition of Atomic Densities via on-the-fly atomic UHF (no occupation information).

   -------------------------
    Irrep   Nso     Nmo    
   -------------------------
     Ag        24      24 
     B1g        7       7 
     B2g       13      13 
     B3g       13      13 
     Au         7       7 
     B1u       24      24 
     B2u       13      13 
     B3u       13      13 
   -------------------------
    Total     114     114
   -------------------------

  ==> Iterations <==

                        Total Energy        Delta E     RMS |[F,P]|

   @RHF iter SAD:   -74.48035644807456   -7.44804e+01   0.00000e+00 
   @RHF iter   1:   -75.37612333917021   -8.95767e-01   4.90565e-03 DIIS/ADIIS
   @RHF iter   2:   -75.40246948335272   -2.63461e-02   1.58956e-03 DIIS/ADIIS
   @RHF iter   3:   -75.40557832640668   -3.10884e-03   5.23210e-04 DIIS/ADIIS
   @RHF iter   4:   -75.40635638616266   -7.78060e-04   1.04468e-04 DIIS/ADIIS
   @RHF iter   5:   -75.40637286842093   -1.64823e-05   1.04075e-05 DIIS
   @RHF iter   6:   -75.40637305051465   -1.82094e-07   7.02281e-07 DIIS
   @RHF iter   7:   -75.40637305138830   -8.73655e-10   1.00253e-07 DIIS
   @RHF iter   8:   -75.40637305140839   -2.00941e-11   7.65030e-09 DIIS
   @RHF iter   9:   -75.40637305140852   -1.27898e-13   1.18526e-09 DIIS
   @RHF iter  10:   -75.40637305140851    1.42109e-14   2.17014e-10 DIIS
   @RHF iter  11:   -75.40637305140856   -5.68434e-14   1.70027e-11 DIIS
  Energy and wave function converged.


  ==> Post-Iterations <==

    Orbital Energies [Eh]
    ---------------------

    Doubly Occupied:                                                      

       1Ag   -11.359250     1B1u  -11.356902     2Ag    -1.062080  
       2B1u   -0.516591     1B3u   -0.458570     1B2u   -0.458570  

    Virtual:                                                              

       3Ag    -0.114116     1B3g    0.132011     1B2g    0.132011  
       3B1u    0.143511     2B3u    0.208475     2B2u    0.208475  
       4Ag     0.224405     5Ag     0.316701     2B3g    0.321304  
       2B2g    0.321304     4B1u    0.449216     6Ag     0.563145  
       1B1g    0.563145     5B1u    0.648249     3B3u    0.732821  
       3B2u    0.732821     7Ag     0.784786     1Au     0.805568  
       6B1u    0.805568     4B3u    0.938235     4B2u    0.938235  
       3B3g    0.984137     3B2g    0.984137     4B3g    1.031456  
       4B2g    1.031456     8Ag     1.043013     7B1u    1.050919  
       8B1u    1.278295     9Ag     1.644250     5B3u    1.780373  
       5B2u    1.780373     2B1g    1.829851    10Ag     1.829851  
       6B2u    1.917433     6B3u    1.917433    11Ag     2.116787  
       3B1g    2.116787     5B2g    2.143325     5B3g    2.143325  
       2Au     2.160148     9B1u    2.160148    12Ag     2.211558  
       6B3g    2.218059     6B2g    2.218059    10B1u    2.352376  
      11B1u    2.480461    13Ag     2.518182     7B3u    2.555874  
       7B2u    2.555874     3Au     2.693708    12B1u    2.693708  
       7B3g    2.906715     7B2g    2.906715    13B1u    3.038479  
       8B3u    3.077625     8B2u    3.077625     8B3g    4.023831  
       8B2g    4.023831    14Ag     4.070507     9B3u    4.777198  
       9B2u    4.777198    14B1u    4.781833    15Ag     4.957249  
       4B1g    4.957249    16Ag     5.131910     5B1g    5.131910  
       4Au     5.299799    15B1u    5.299799    10B2u    5.303206  
      10B3u    5.303206    17Ag     5.423124     9B3g    5.701451  
       9B2g    5.701451    10B2g    5.951476    10B3g    5.951476  
      16B1u    6.045667     5Au     6.045667    11B3u    6.188571  
      11B2u    6.188571    12B3u    6.243237    12B2u    6.243237  
      18Ag     6.257051     6B1g    6.257051    19Ag     6.295093  
      11B2g    6.353635    11B3g    6.353635    20Ag     6.360728  
       7B1g    6.360728     6Au     6.533488    17B1u    6.533488  
      18B1u    6.590727    12B3g    7.040198    12B2g    7.040198  
      19B1u    7.130526    21Ag     7.426288    13B3u    7.477881  
      13B2u    7.477881    20B1u    7.516180     7Au     7.516180  
      21B1u    7.534077    22Ag     8.424906    13B3g    9.449767  
      13B2g    9.449767    22B1u   10.589318    23Ag    27.834908  
      23B1u   29.250702    24Ag   148.163555    24B1u  149.774180  

    Final Occupation by Irrep:
             Ag   B1g   B2g   B3g    Au   B1u   B2u   B3u 
    DOCC [     2,    0,    0,    0,    0,    2,    1,    1 ]
    NA   [     2,    0,    0,    0,    0,    2,    1,    1 ]
    NB   [     2,    0,    0,    0,    0,    2,    1,    1 ]

  @RHF Final Energy:   -75.40637305140856

   => Energetics <=

    Nuclear Repulsion Energy =             15.3632093420322580
    One-Electron Energy =                -131.1152397806388024
    Two-Electron Energy =                  40.3456573871979600
    Total Energy =                        -75.4063730514085790

Computation Completed


Properties will be evaluated at   0.000000,   0.000000,   0.000000 [a0]

Properties computed using the SCF density matrix


 Multipole Moments:

 ------------------------------------------------------------------------------------
     Multipole            Electronic (a.u.)      Nuclear  (a.u.)        Total (a.u.)
 ------------------------------------------------------------------------------------

 L = 1.  Multiply by 2.5417464519 to convert [e a0] to [Debye]
 Dipole X            :          0.0000000            0.0000000            0.0000000
 Dipole Y            :          0.0000000            0.0000000            0.0000000
 Dipole Z            :          0.0000000           -0.0000000           -0.0000000
 Magnitude           :                                                    0.0000000

 ------------------------------------------------------------------------------------

*** tstop() called on nh006 at Fri Jun  6 00:14:33 2025
Module time:
	user time   =      35.30 seconds =       0.59 minutes
	system time =       0.84 seconds =       0.01 minutes
	total time  =          4 seconds =       0.07 minutes
Total time:
	user time   =      35.30 seconds =       0.59 minutes
	system time =       0.84 seconds =       0.01 minutes
	total time  =          4 seconds =       0.07 minutes
 MINTS: Wrapper to libmints.
   by Justin Turney

   Calculation information:
      Number of threads:                40
      Number of atoms:                   2
      Number of AO shells:              34
      Number of SO shells:              17
      Number of primitives:             58
      Number of atomic orbitals:       144
      Number of basis functions:       114

      Number of irreps:                  8
      Integral cutoff                 1.00e-12
      Number of functions per irrep: [  24    7   13   13    7   24   13   13 ]

 OEINTS: Overlap, kinetic, potential, dipole, and quadrupole integrals
         stored in file 35.

      Computing two-electron integrals...done
      Computed 2085324 non-zero two-electron integrals.
        Stored in file 33.


*** tstart() called on nh006
*** at Fri Jun  6 00:14:35 2025


	Wfn Parameters:
	--------------------
	Wavefunction         = CCSD
	Number of irreps     = 8
	Number of MOs        = 114
	Number of active MOs = 114
	AO-Basis             = NONE
	Semicanonical        = false
	Reference            = RHF
	Print Level          = 1

	IRREP	# MOs	# FZDC	# DOCC	# SOCC	# VIRT	# FZVR
	-----	-----	------	------	------	------	------
	 Ag	   24	    0	    2	    0	    22	    0
	 B1g	   7	    0	    0	    0	    7	    0
	 B2g	   13	    0	    0	    0	    13	    0
	 B3g	   13	    0	    0	    0	    13	    0
	 Au	   7	    0	    0	    0	    7	    0
	 B1u	   24	    0	    2	    0	    22	    0
	 B2u	   13	    0	    1	    0	    12	    0
	 B3u	   13	    0	    1	    0	    12	    0
	Transforming integrals...
	IWL integrals will be deleted.
	(OO|OO)...
	Presorting SO-basis two-electron integrals.
	Sorting File: SO Ints (nn|nn) nbuckets = 1
	Constructing frozen core operators
	Starting first half-transformation.
	Sorting half-transformed integrals.
	First half integral transformation complete.
	Starting second half-transformation.
	Two-electron integral transformation complete.
	(OO|OV)...
	Starting second half-transformation.
	Two-electron integral transformation complete.
	(OO|VV)...
	Starting second half-transformation.
	Two-electron integral transformation complete.
	(OV|OO)...
	Starting first half-transformation.
	Sorting half-transformed integrals.
	First half integral transformation complete.
	Starting second half-transformation.
	Two-electron integral transformation complete.
	(OV|OV)...
	Starting second half-transformation.
	Two-electron integral transformation complete.
	(OV|VV)...
	Starting second half-transformation.
	Two-electron integral transformation complete.
	(VV|OO)...
	Starting first half-transformation.
	Sorting half-transformed integrals.
	First half integral transformation complete.
	Starting second half-transformation.
	Two-electron integral transformation complete.
	(VV|OV)...
	Starting second half-transformation.
	Two-electron integral transformation complete.
	(VV|VV)...
	Starting second half-transformation.
	Two-electron integral transformation complete.
	Frozen core energy     =      0.00000000000000

	Size of irrep 0 of <ab|cd> integrals:      2.863 (MW) /     22.903 (MB)
	Size of irrep 1 of <ab|cd> integrals:      1.543 (MW) /     12.341 (MB)
	Size of irrep 2 of <ab|cd> integrals:      2.103 (MW) /     16.820 (MB)
	Size of irrep 3 of <ab|cd> integrals:      2.103 (MW) /     16.820 (MB)
	Size of irrep 4 of <ab|cd> integrals:      1.538 (MW) /     12.301 (MB)
	Size of irrep 5 of <ab|cd> integrals:      2.856 (MW) /     22.849 (MB)
	Size of irrep 6 of <ab|cd> integrals:      2.103 (MW) /     16.820 (MB)
	Size of irrep 7 of <ab|cd> integrals:      2.103 (MW) /     16.820 (MB)
	Total:                                    17.209 (MW) /    137.673 (MB)

	Size of irrep 0 of <ia|bc> integrals:      0.190 (MW) /      1.516 (MB)
	Size of irrep 1 of <ia|bc> integrals:      0.065 (MW) /      0.517 (MB)
	Size of irrep 2 of <ia|bc> integrals:      0.115 (MW) /      0.916 (MB)
	Size of irrep 3 of <ia|bc> integrals:      0.115 (MW) /      0.916 (MB)
	Size of irrep 4 of <ia|bc> integrals:      0.067 (MW) /      0.536 (MB)
	Size of irrep 5 of <ia|bc> integrals:      0.193 (MW) /      1.541 (MB)
	Size of irrep 6 of <ia|bc> integrals:      0.115 (MW) /      0.916 (MB)
	Size of irrep 7 of <ia|bc> integrals:      0.115 (MW) /      0.916 (MB)
	Total:                                     0.972 (MW) /      7.775 (MB)

	Size of irrep 0 of tijab amplitudes:       0.017 (MW) /      0.135 (MB)
	Size of irrep 1 of tijab amplitudes:       0.002 (MW) /      0.020 (MB)
	Size of irrep 2 of tijab amplitudes:       0.006 (MW) /      0.046 (MB)
	Size of irrep 3 of tijab amplitudes:       0.006 (MW) /      0.046 (MB)
	Size of irrep 4 of tijab amplitudes:       0.000 (MW) /      0.000 (MB)
	Size of irrep 5 of tijab amplitudes:       0.014 (MW) /      0.108 (MB)
	Size of irrep 6 of tijab amplitudes:       0.006 (MW) /      0.046 (MB)
	Size of irrep 7 of tijab amplitudes:       0.006 (MW) /      0.046 (MB)
	Total:                                     0.056 (MW) /      0.449 (MB)

	Nuclear Rep. energy          =     15.36320934203226
	SCF energy                   =    -75.40637305140856
	One-electron energy          =   -131.11523978125066
	Two-electron energy          =     40.34565738780976
	Reference energy             =    -75.40637305140865

*** tstop() called on nh006 at Fri Jun  6 00:14:36 2025
Module time:
	user time   =       1.07 seconds =       0.02 minutes
	system time =       0.39 seconds =       0.01 minutes
	total time  =          1 seconds =       0.02 minutes
Total time:
	user time   =      37.82 seconds =       0.63 minutes
	system time =       1.42 seconds =       0.02 minutes
	total time  =          7 seconds =       0.12 minutes
            **************************
            *                        *
            *        CCENERGY        *
            *                        *
            **************************

    Nuclear Rep. energy (wfn)     =   15.363209342032258
    SCF energy          (wfn)     =  -75.406373051408565
    Reference energy    (file100) =  -75.406373051408650

    Input parameters:
    -----------------
    Wave function   =     CCSD
    Reference wfn   =     RHF
    Brueckner       =     No
    Memory (Mbytes) =     100000.0
    Maxiter         =     50
    R_Convergence   =     1.0e-07
    E_Convergence   =     1.0e-08
    Restart         =     Yes
    DIIS            =     Yes
    AO Basis        =     NONE
    ABCD            =     NEW
    Cache Level     =     2
    Cache Type      =     LOW
    Print Level     =     1
    Num. of threads =     40
    # Amps to Print =     10
    Print MP2 Amps? =     No
    Analyze T2 Amps =     No
    Print Pair Ener =     No
    Local CC        =     No
    SCS-MP2         =     False
    SCSN-MP2        =     False
    SCS-CCSD        =     False

MP2 correlation energy -0.4149379228505362
                Solving CC Amplitude Equations
                ------------------------------
  Iter             Energy              RMS        T1Diag      D1Diag    New D1Diag    D2Diag
  ----     ---------------------    ---------   ----------  ----------  ----------   --------
     0        -0.414937922850536    0.000e+00    0.000000    0.000000    0.000000    0.267483
     1        -0.357333325281364    1.306e-01    0.024297    0.051851    0.051851    0.246747
     2        -0.386891054311731    9.278e-02    0.021883    0.050568    0.050568    0.287679
     3        -0.400362275588242    4.076e-02    0.029334    0.075439    0.075439    0.343177
     4        -0.404484361319312    1.456e-02    0.031399    0.084241    0.084241    0.368623
     5        -0.404748271723436    2.719e-03    0.031799    0.086219    0.086219    0.371482
     6        -0.404622459859585    9.016e-04    0.031871    0.086597    0.086597    0.371455
     7        -0.404755852560404    5.648e-04    0.031931    0.086845    0.086845    0.371929
     8        -0.404757104865325    2.701e-04    0.031929    0.086845    0.086845    0.371880
     9        -0.404754513905577    7.505e-05    0.031934    0.086855    0.086855    0.371923
    10        -0.404759614575769    2.441e-05    0.031933    0.086852    0.086852    0.371939
    11        -0.404759430206408    8.697e-06    0.031932    0.086847    0.086847    0.371936
    12        -0.404758682270532    2.064e-06    0.031932    0.086846    0.086846    0.371933
    13        -0.404758814692297    6.143e-07    0.031932    0.086846    0.086846    0.371934
    14        -0.404758827805276    1.604e-07    0.031932    0.086846    0.086846    0.371934
    15        -0.404758823470181    3.703e-08    0.031932    0.086846    0.086846    0.371934
    16        -0.404758823887022    1.478e-08    0.031932    0.086846    0.086846    0.371934

    Iterations converged.


    Largest TIA Amplitudes:
              1   0        -0.0848231850
              3  66         0.0269955271
              3  64        -0.0266501184
              3  67        -0.0228909875
              3  63         0.0209461291
              4  86         0.0203055321
              5  98         0.0203055321
              4  84         0.0154185416
              5  96         0.0154185416
              3  62         0.0147461467

    Largest TIjAb Amplitudes:
      3   3   0   0        -0.2817328369
      4   4   0   0        -0.0770804913
      5   5   0   0        -0.0770804913
      3   5   0  29        -0.0745343133
      5   3  29   0        -0.0745343133
      3   4   0  42        -0.0745343133
      4   3  42   0        -0.0745343133
      4   4  42  42        -0.0668222539
      5   5  29  29        -0.0668222539
      3   5  29   0        -0.0617100216

    SCF energy       (wfn)                    =  -75.406373051408565
    Reference energy (file100)                =  -75.406373051408650

    Opposite-spin MP2 correlation energy      =   -0.320551588516689
    Same-spin MP2 correlation energy          =   -0.094386334333847
    Singles MP2 correlation energy            =   -0.000000000000000
    MP2 correlation energy                    =   -0.414937922850536
      * MP2 total energy                      =  -75.821310974259191

    Opposite-spin CCSD correlation energy     =   -0.345052471412204
    Same-spin CCSD correlation energy         =   -0.059706352474815
    Singles CCSD correlation energy           =    0.000000000000000
    CCSD correlation energy                   =   -0.404758823887022
      * CCSD total energy                     =  -75.811131875295672


			**************************
			*                        *
			*         CCHBAR         *
			*                        *
			**************************


			**************************
			*        CCLAMBDA        *
			**************************


	Nuclear Rep. energy (wfn)     =   15.363209342032258
	Reference           (wfn)     =                    0
	SCF energy          (wfn)     =  -75.406373051408565
	Reference energy    (CC_INFO) =  -75.406373051408650
	CCSD energy         (CC_INFO) =   -0.404758823887022
	Total CCSD energy   (CC_INFO) =  -75.811131875295672

	Input parameters:
	-----------------
	Maxiter           =     50
	Convergence       = 1.0e-07
	Restart           =     No
	Cache Level       =     2
	Model III         =     No
	DIIS              =     Yes
	AO Basis          =     No
	ABCD              =     NEW
	Local CC          =     No
	Parameters for left-handed eigenvectors:
	    Irr   Root  Ground-State?    EOM energy        R0
	  1   0     0        Yes       0.0000000000   1.0000000000
	Labels for eigenvector 1:
	LIA 0 -1, Lia 0 -1, LIJAB 0 -1, Lijab 0 -1, LIjAb 0 -1, 2LIjAb - LIjbA 0 -1
	Deleting old CC_LAMBDA data.
	Symmetry of left-hand state: Ag
	Symmetry of left-hand eigenvector: Ag

	          Solving Lambda Equations
	          ------------------------
	Iter     PseudoEnergy or Norm         RMS  
	----     ---------------------     --------
	   0        -0.405451735249069    0.000e+00
	   1        -0.366776037509221    5.797e-02
	   2        -0.365910897143473    1.516e-02
	   3        -0.363678406417603    6.890e-03
	   4        -0.363894417618975    3.745e-03
	   5        -0.363795109768503    2.064e-03
	   6        -0.363784697588732    7.923e-04
	   7        -0.363757028453134    3.520e-04
	   8        -0.363752715300280    1.825e-04
	   9        -0.363749790819800    8.826e-05
	  10        -0.363751282436679    4.380e-05
	  11        -0.363753339350984    2.130e-05
	  12        -0.363753739552937    7.188e-06
	  13        -0.363754439108372    3.004e-06
	  14        -0.363754321635944    1.197e-06
	  15        -0.363754401913845    5.418e-07
	  16        -0.363754386879057    2.471e-07
	  17        -0.363754399135290    1.180e-07
	  18        -0.363754404538993    5.097e-08

	Largest LIA Amplitudes:
	          1   0        -0.0641194079
	          3  64        -0.0195907486
	          3  67        -0.0177491103
	          3  66         0.0167339058
	          3  63         0.0116918501
	          4  85        -0.0116075925
	          5  97        -0.0116075925
	          1   1        -0.0111647840
	          1   2        -0.0110369271
	          4  88         0.0100267149

	Largest LIjAb Amplitudes:
	  3   3   0   0        -0.2454349550
	  4   4  42  42        -0.0689725130
	  5   5  29  29        -0.0689725130
	  3   5   0  29        -0.0631347333
	  5   3  29   0        -0.0631347333
	  3   4   0  42        -0.0631347333
	  4   3  42   0        -0.0631347333
	  3   5  29   0        -0.0613903031
	  5   3   0  29        -0.0613903031
	  3   4  42   0        -0.0613903031

	Iterations converged.

	Overlap <L|e^T> =        0.74198384050

			**************************
			*                        *
			*        CCDENSITY       *
			*                        *
			**************************


	Input parameters:
	-----------------
	Wave function    =   CCSD
	Reference wfn    =   RHF
	Dertype          = 0
	Tolerance        = 1.0e-14
	Cache Level      = 2
	AO Basis         = No
	OPDM Only        = Yes
	Relax OPDM       = No
	Compute Xi       = No
	Use Zeta         = No
	Xi connected     = Yes
	Compute NO       = No

	Nuclear Rep. energy (wfn)     =   15.363209342032258
	SCF energy          (wfn)     =  -75.406373051408565
	Reference energy    (file100) =  -75.406373051408650
	CCSD energy         (CC_INFO) =   -0.404758823887022
	Total CCSD energy   (CC_INFO) =  -75.811131875295672
	Number of States = 1

	Ground?  State     EOM Energy       R0
	  Yes     0 Ag    0.0000000000   1.00000000


Properties will be evaluated at   0.000000,   0.000000,   0.000000 [a0]

Properties computed using the CCSD density matrix

  Natural Orbital Occupations:

  Total Occupations:
  HONO-2 :    1B3u    1.896
  HONO-1 :    1B2u    1.896
  HONO-0 :    2B1u    1.757
  LUNO+0 :    3 Ag    0.242
  LUNO+1 :    1B2g    0.080
  LUNO+2 :    1B3g    0.080
  LUNO+3 :    3B1u    0.013


    Psi4 stopped on: Friday, 06 June 2025 12:14AM
    Psi4 wall time for execution: 0:00:10.05

*** Psi4 exiting successfully. Buy a developer a beer!
