
    -----------------------------------------------------------------------
          Psi4: An Open-Source Ab Initio Electronic Structure Package
                               Psi4 1.9.1 release

                         Git: Rev {} zzzzzzz 


    D. G. A. Smith, L. A. Burns, A. C. Simmonett, R. M. Parrish,
    M. C. Schieber, R. Galvelis, P. Kraus, H. Kruse, R. Di Remigio,
    A. Alenaizan, A. M. James, S. Lehtola, J. P. Misiewicz, M. Scheurer,
    R. A. Shaw, J. B. Schriber, Y. Xie, Z. L. Glick, D. A. Sirianni,
    J. S. O'Brien, J. M. Waldrop, A. Kumar, E. G. Hohenstein,
    B. P. Pritchard, B. R. Brooks, H. F. Schaefer III, A. Yu. Sokolov,
    K. Patkowski, A. E. DePrince III, U. Bozkaya, R. A. King,
    F. A. Evangelista, J. M. Turney, T. D. Crawford, C. D. Sherrill,
    J. Chem. Phys. 152(18) 184108 (2020). https://doi.org/10.1063/5.0006002

                            Additional Code Authors
    E. T. Seidl, C. L. Janssen, E. F. Valeev, M. L. Leininger,
    J. F. Gonthier, R. M. Richard, H. R. McAlexander, M. Saitow, X. Wang,
    P. Verma, M. H. Lechner, A. Jiang, S. Behnle, A. G. Heide,
    M. F. Herbst, and D. L. Poole

             Previous Authors, Complete List of Code Contributors,
                       and Citations for Specific Modules
    https://github.com/psi4/psi4/blob/master/codemeta.json
    https://github.com/psi4/psi4/graphs/contributors
    http://psicode.org/psi4manual/master/introduction.html#citing-psifour

    -----------------------------------------------------------------------


    Psi4 started on: Friday, 06 June 2025 03:47PM

    Process ID: 595082
    Host:       na14
    PSIDATADIR: /software-nas/eb2024/easybuild/software/rocky/8.9/amd/zen4/software/PSI4/1.9.1-foss-2023b/share/psi4
    Memory:     500.0 MiB
    Threads:    40
    
  ==> Input File <==

--------------------------------------------------------------------------
memory 100Gb

molecule{
0 2
H     0.00000000  0.00000000  -1.57015709
F     0.00000000  0.00000000  0.04490245
F     0.00000000  0.00000000  1.52525464
}

set reference rohf

energy("CCSD(T)/cc-pVTZ")
--------------------------------------------------------------------------

  Memory set to  93.132 GiB by Python driver.

Scratch directory: /scratch/pobleyef/203985/
   => Libint2 <=

    Primary   basis highest AM E, G, H:  5, 4, 3
    Auxiliary basis highest AM E, G, H:  6, 5, 4
    Onebody   basis highest AM E, G, H:  6, 5, 4
    Solid Harmonics ordering:            Gaussian

*** tstart() called on na14
*** at Fri Jun  6 15:47:27 2025

   => Loading Basis Set <=

    Name: CC-PVTZ
    Role: ORBITAL
    Keyword: BASIS
    atoms 1   entry H          line    23 file /software-nas/eb2024/easybuild/software/rocky/8.9/amd/zen4/software/PSI4/1.9.1-foss-2023b/share/psi4/basis/cc-pvtz.gbs 
    atoms 2-3 entry F          line   300 file /software-nas/eb2024/easybuild/software/rocky/8.9/amd/zen4/software/PSI4/1.9.1-foss-2023b/share/psi4/basis/cc-pvtz.gbs 


         ---------------------------------------------------------
                                   SCF
               by Justin Turney, Rob Parrish, Andy Simmonett
                          and Daniel G. A. Smith
                             ROHF Reference
                       40 Threads,  95367 MiB Core
         ---------------------------------------------------------

  ==> Geometry <==

    Molecular point group: c2v
    Full point group: C_inf_v

    Geometry (in Angstrom), charge = 0, multiplicity = 2:

       Center              X                  Y                   Z               Mass       
    ------------   -----------------  -----------------  -----------------  -----------------
         H            0.000000000000     0.000000000000    -2.294379645669     1.007825032230
         F            0.000000000000     0.000000000000    -0.679320105669    18.998403162730
         F            0.000000000000     0.000000000000     0.801032084331    18.998403162730

  Running in c2v symmetry.

  Rotational constants: A = ************  B =      0.64188  C =      0.64188 [cm^-1]
  Rotational constants: A = ************  B =  19242.97104  C =  19242.97104 [MHz]
  Nuclear repulsion =   33.442300092340837

  Charge       = 0
  Multiplicity = 2
  Electrons    = 19
  Nalpha       = 10
  Nbeta        = 9

  ==> Algorithm <==

  SCF Algorithm Type is PK.
  DIIS enabled.
  MOM disabled.
  Fractional occupation disabled.
  Guess Type is SAD.
  Energy threshold   = 1.00e-08
  Density threshold  = 1.00e-08
  Integral threshold = 1.00e-12

  ==> Primary Basis <==

  Basis Set: CC-PVTZ
    Blend: CC-PVTZ
    Number of shells: 26
    Number of basis functions: 74
    Number of Cartesian functions: 85
    Spherical Harmonics?: true
    Max angular momentum: 3

  ==> Integral Setup <==

  Using in-core PK algorithm.
   Calculation information:
      Number of atoms:                   3
      Number of AO shells:              26
      Number of primitives:             60
      Number of atomic orbitals:        85
      Number of basis functions:        74

      Integral cutoff                 1.00e-12
      Number of threads:                40

  Performing in-core PK
  Using 7703400 doubles for integral storage.
  We computed 270338 shell quartets total.
  Whereas there are 61776 unique shell quartets.
   337.61 percent of shell quartets recomputed by reordering.

  ==> DiskJK: Disk-Based J/K Matrices <==

    J tasked:                  Yes
    K tasked:                  Yes
    wK tasked:                  No
    Memory [MiB]:            71525
    Schwarz Cutoff:          1E-12

    OpenMP threads:             40

  Minimum eigenvalue in the overlap matrix is 1.4383364902E-02.
  Reciprocal condition number of the overlap matrix is 4.6100339341E-03.
    Using symmetric orthogonalization.

  ==> Pre-Iterations <==

  SCF Guess: Superposition of Atomic Densities via on-the-fly atomic UHF (no occupation information).

   -------------------------
    Irrep   Nso     Nmo    
   -------------------------
     A1        33      33 
     A2         7       7 
     B1        17      17 
     B2        17      17 
   -------------------------
    Total      74      74
   -------------------------

  ==> Iterations <==

                        Total Energy        Delta E     RMS |[F,P]|

   @ROHF iter SAD:  -198.46800815866146   -1.98468e+02   0.00000e+00 
   @ROHF iter   1:  -199.09761853625540   -6.29610e-01   6.19132e-03 DIIS
   @ROHF iter   2:  -199.10287681447195   -5.25828e-03   9.90442e-03 DIIS
   @ROHF iter   3:  -199.19961014839893   -9.67333e-02   2.77297e-03 DIIS
   @ROHF iter   4:  -199.21163429607645   -1.20241e-02   1.60031e-03 DIIS
   @ROHF iter   5:  -199.21979601272122   -8.16172e-03   1.01138e-03 DIIS
   @ROHF iter   6:  -199.22445683715313   -4.66082e-03   5.29909e-04 DIIS
   @ROHF iter   7:  -199.22503030773584   -5.73471e-04   1.07924e-04 DIIS
   @ROHF iter   8:  -199.22505989860517   -2.95909e-05   6.56444e-05 DIIS
   @ROHF iter   9:  -199.22508445693146   -2.45583e-05   1.48322e-05 DIIS
   @ROHF iter  10:  -199.22508533873773   -8.81806e-07   4.55784e-06 DIIS
   @ROHF iter  11:  -199.22508544866466   -1.09927e-07   1.22589e-06 DIIS
   @ROHF iter  12:  -199.22508545598620   -7.32155e-09   2.53435e-07 DIIS
   @ROHF iter  13:  -199.22508545618157   -1.95371e-10   1.42000e-08 DIIS
   @ROHF iter  14:  -199.22508545618149    8.52651e-14   7.64197e-09 DIIS
  Energy and wave function converged.


  ==> Post-Iterations <==

    Orbital Energies [Eh]
    ---------------------

    Doubly Occupied:                                                      

       1A1   -26.435151     2A1   -26.413721     3A1    -1.729813  
       4A1    -1.512985     1B2    -0.791342     1B1    -0.791342  
       5A1    -0.735892     2B2    -0.670654     2B1    -0.670654  

    Singly Occupied:                                                      

       6A1    -0.192936  

    Virtual:                                                              

       7A1     0.074154     8A1     0.372621     3B2     0.733768  
       3B1     0.733768     4B2     0.887394     4B1     0.887394  
       9A1     0.892968    10A1     0.929233     5B2     1.072784  
       5B1     1.072784    11A1     1.192846    12A1     1.573599  
      13A1     1.821237     6B2     1.913914     6B1     1.913914  
      14A1     2.116037     1A2     2.116037    15A1     2.242029  
       2A2     2.303999    16A1     2.303999    17A1     2.712262  
       7B2     2.712713     7B1     2.712713    18A1     3.109317  
      19A1     3.438378     3A2     3.438378     8B1     3.545135  
       8B2     3.545135     9B1     3.918636     9B2     3.918636  
      20A1     3.933690    21A1     4.359291    10B1     4.933845  
      10B2     4.933845    22A1     5.069809    11B2     5.086344  
      11B1     5.086344    23A1     5.619366    12B1     7.001592  
      12B2     7.001592    24A1     7.206972     4A2     7.206972  
      25A1     7.218211    13B1     7.325476    13B2     7.325476  
      14B1     7.348876    14B2     7.348876     5A2     7.386413  
      26A1     7.386413    15B1     7.655834    15B2     7.655834  
      27A1     8.076993    16B1     8.695471    16B2     8.695471  
       6A2     8.716637    28A1     8.716637     7A2     8.843218  
      29A1     8.843218    30A1     8.970601    17B1     9.267342  
      17B2     9.267342    31A1    10.119749    32A1    10.319267  
      33A1    10.850716  

    Final Occupation by Irrep:
             A1    A2    B1    B2 
    DOCC [     5,    0,    2,    2 ]
    SOCC [     1,    0,    0,    0 ]
    NA   [     6,    0,    2,    2 ]
    NB   [     5,    0,    2,    2 ]

  @ROHF Final Energy:  -199.22508545618149

   => Energetics <=

    Nuclear Repulsion Energy =             33.4423000923408367
    One-Electron Energy =                -345.3487701144163111
    Two-Electron Energy =                 112.6813845658939783
    Total Energy =                       -199.2250854561815174

Computation Completed


Properties will be evaluated at   0.000000,   0.000000,   0.000000 [a0]

Properties computed using the SCF density matrix


 Multipole Moments:

 ------------------------------------------------------------------------------------
     Multipole            Electronic (a.u.)      Nuclear  (a.u.)        Total (a.u.)
 ------------------------------------------------------------------------------------

 L = 1.  Multiply by 2.5417464519 to convert [e a0] to [Debye]
 Dipole X            :          0.0000000            0.0000000            0.0000000
 Dipole Y            :          0.0000000            0.0000000            0.0000000
 Dipole Z            :          2.0927882           -2.2657284           -0.1729402
 Magnitude           :                                                    0.1729402

 ------------------------------------------------------------------------------------

*** tstop() called on na14 at Fri Jun  6 15:47:32 2025
Module time:
	user time   =     179.84 seconds =       3.00 minutes
	system time =       0.54 seconds =       0.01 minutes
	total time  =          5 seconds =       0.08 minutes
Total time:
	user time   =     179.84 seconds =       3.00 minutes
	system time =       0.54 seconds =       0.01 minutes
	total time  =          5 seconds =       0.08 minutes
 MINTS: Wrapper to libmints.
   by Justin Turney

   Calculation information:
      Number of threads:                40
      Number of atoms:                   3
      Number of AO shells:              26
      Number of SO shells:              26
      Number of primitives:             60
      Number of atomic orbitals:        85
      Number of basis functions:        74

      Number of irreps:                  4
      Integral cutoff                 1.00e-12
      Number of functions per irrep: [  33    7   17   17 ]

 OEINTS: Overlap, kinetic, potential, dipole, and quadrupole integrals
         stored in file 35.

      Computing two-electron integrals...done
      Computed 740912 non-zero two-electron integrals.
        Stored in file 33.


*** tstart() called on na14
*** at Fri Jun  6 15:47:33 2025


	Wfn Parameters:
	--------------------
	Wavefunction         = CCSD_T
	Number of irreps     = 4
	Number of MOs        = 74
	Number of active MOs = 74
	AO-Basis             = NONE
	Semicanonical        = true
	Reference            = ROHF changed to UHF for semicanonical orbitals
	Print Level          = 1

	IRREP	# MOs	# FZDC	# DOCC	# SOCC	# VIRT	# FZVR
	-----	-----	------	------	------	------	------
	 A1	   33	    0	    5	    1	    27	    0
	 A2	   7	    0	    0	    0	    7	    0
	 B1	   17	    0	    2	    0	    15	    0
	 B2	   17	    0	    2	    0	    15	    0
	Transforming integrals...
	IWL integrals will be deleted.
	(OO|OO)...
	Presorting SO-basis two-electron integrals.
	Sorting File: SO Ints (nn|nn) nbuckets = 1
	Constructing frozen core operators
	Starting AA/AB first half-transformation.
	Sorting AA/AB half-transformed integrals.
	Starting BB first half-transformation.
	Sorting BB half-transformed integrals.
	First half integral transformation complete.
	Starting AA second half-transformation.
	Starting AB second half-transformation.
	Starting BB second half-transformation.
	Two-electron integral transformation complete.
	(OO|OV)...
	Starting AA second half-transformation.
	Starting AB second half-transformation.
	Starting BB second half-transformation.
	Two-electron integral transformation complete.
	(OO|VV)...
	Starting AA second half-transformation.
	Starting AB second half-transformation.
	Starting BB second half-transformation.
	Two-electron integral transformation complete.
	(OV|OO)...
	Starting AA/AB first half-transformation.
	Sorting AA/AB half-transformed integrals.
	Starting BB first half-transformation.
	Sorting BB half-transformed integrals.
	First half integral transformation complete.
	Starting AA second half-transformation.
	Starting AB second half-transformation.
	Starting BB second half-transformation.
	Two-electron integral transformation complete.
	(OV|OV)...
	Starting AA second half-transformation.
	Starting AB second half-transformation.
	Starting BB second half-transformation.
	Two-electron integral transformation complete.
	(OV|VV)...
	Starting AA second half-transformation.
	Starting AB second half-transformation.
	Starting BB second half-transformation.
	Two-electron integral transformation complete.
	(VV|OO)...
	Starting AA/AB first half-transformation.
	Sorting AA/AB half-transformed integrals.
	Starting BB first half-transformation.
	Sorting BB half-transformed integrals.
	First half integral transformation complete.
	Starting AA second half-transformation.
	Starting AB second half-transformation.
	Starting BB second half-transformation.
	Two-electron integral transformation complete.
	(VV|OV)...
	Starting AA second half-transformation.
	Starting AB second half-transformation.
	Starting BB second half-transformation.
	Two-electron integral transformation complete.
	(VV|VV)...
	Starting AA second half-transformation.
	Starting AB second half-transformation.
	Starting BB second half-transformation.
	Two-electron integral transformation complete.
	Frozen core energy     =      0.00000000000000

	Size of irrep 0 of <AB|CD> integrals:      0.339 (MW) /      2.710 (MB)
	Size of irrep 1 of <AB|CD> integrals:      0.171 (MW) /      1.371 (MB)
	Size of irrep 2 of <AB|CD> integrals:      0.260 (MW) /      2.081 (MB)
	Size of irrep 3 of <AB|CD> integrals:      0.260 (MW) /      2.081 (MB)
	Total:                                     1.030 (MW) /      8.243 (MB)

	Size of irrep 0 of <ab|cd> integrals:      0.371 (MW) /      2.967 (MB)
	Size of irrep 1 of <ab|cd> integrals:      0.177 (MW) /      1.418 (MB)
	Size of irrep 2 of <ab|cd> integrals:      0.276 (MW) /      2.205 (MB)
	Size of irrep 3 of <ab|cd> integrals:      0.276 (MW) /      2.205 (MB)
	Total:                                     1.099 (MW) /      8.795 (MB)

	Size of irrep 0 of <Ab|Cd> integrals:      1.575 (MW) /     12.600 (MB)
	Size of irrep 1 of <Ab|Cd> integrals:      0.697 (MW) /      5.578 (MB)
	Size of irrep 2 of <Ab|Cd> integrals:      1.071 (MW) /      8.570 (MB)
	Size of irrep 3 of <Ab|Cd> integrals:      1.071 (MW) /      8.570 (MB)
	Total:                                     4.415 (MW) /     35.318 (MB)

	Size of irrep 0 of <IA|BC> integrals:      0.273 (MW) /      2.181 (MB)
	Size of irrep 1 of <IA|BC> integrals:      0.084 (MW) /      0.676 (MB)
	Size of irrep 2 of <IA|BC> integrals:      0.161 (MW) /      1.289 (MB)
	Size of irrep 3 of <IA|BC> integrals:      0.161 (MW) /      1.289 (MB)
	Total:                                     0.679 (MW) /      5.435 (MB)

	Size of irrep 0 of <ia|bc> integrals:      0.257 (MW) /      2.053 (MB)
	Size of irrep 1 of <ia|bc> integrals:      0.080 (MW) /      0.640 (MB)
	Size of irrep 2 of <ia|bc> integrals:      0.152 (MW) /      1.218 (MB)
	Size of irrep 3 of <ia|bc> integrals:      0.152 (MW) /      1.218 (MB)
	Total:                                     0.641 (MW) /      5.129 (MB)

	Size of irrep 0 of <Ia|Bc> integrals:      0.286 (MW) /      2.289 (MB)
	Size of irrep 1 of <Ia|Bc> integrals:      0.085 (MW) /      0.681 (MB)
	Size of irrep 2 of <Ia|Bc> integrals:      0.166 (MW) /      1.325 (MB)
	Size of irrep 3 of <Ia|Bc> integrals:      0.166 (MW) /      1.325 (MB)
	Total:                                     0.703 (MW) /      5.620 (MB)

	Size of irrep 0 of <iA|bC> integrals:      0.245 (MW) /      1.958 (MB)
	Size of irrep 1 of <iA|bC> integrals:      0.079 (MW) /      0.635 (MB)
	Size of irrep 2 of <iA|bC> integrals:      0.148 (MW) /      1.184 (MB)
	Size of irrep 3 of <iA|bC> integrals:      0.148 (MW) /      1.184 (MB)
	Total:                                     0.620 (MW) /      4.960 (MB)

	Size of irrep 0 of tIjAb amplitudes:       0.048 (MW) /      0.382 (MB)
	Size of irrep 1 of tIjAb amplitudes:       0.007 (MW) /      0.053 (MB)
	Size of irrep 2 of tIjAb amplitudes:       0.023 (MW) /      0.182 (MB)
	Size of irrep 3 of tIjAb amplitudes:       0.023 (MW) /      0.182 (MB)
	Total:                                     0.100 (MW) /      0.799 (MB)

	Nuclear Rep. energy          =     33.44230009234084
	SCF energy                   =   -199.22508545618149
	One-electron energy          =   -345.34877216771895
	Two-electron (AA) energy     =     24.39531264001374
	Two-electron (BB) energy     =     21.97032308098711
	Two-electron (AB) energy     =     66.31575089819556
	Two-electron energy          =    112.68138661919642
	Reference energy             =   -199.22508545618169

*** tstop() called on na14 at Fri Jun  6 15:47:34 2025
Module time:
	user time   =       3.31 seconds =       0.06 minutes
	system time =       0.39 seconds =       0.01 minutes
	total time  =          1 seconds =       0.02 minutes
Total time:
	user time   =     184.34 seconds =       3.07 minutes
	system time =       1.03 seconds =       0.02 minutes
	total time  =          7 seconds =       0.12 minutes
            **************************
            *                        *
            *        CCENERGY        *
            *                        *
            **************************

    Nuclear Rep. energy (wfn)     =   33.442300092340837
    SCF energy          (wfn)     = -199.225085456181489
    Reference energy    (file100) = -199.225085456181688

    Input parameters:
    -----------------
    Wave function   =     CCSD_T
    Reference wfn   =     ROHF changed to UHF for Semicanonical Orbitals
    Brueckner       =     No
    Memory (Mbytes) =     100000.0
    Maxiter         =     50
    R_Convergence   =     1.0e-07
    E_Convergence   =     1.0e-06
    Restart         =     Yes
    DIIS            =     Yes
    AO Basis        =     NONE
    ABCD            =     NEW
    Cache Level     =     2
    Cache Type      =     LRU
    Print Level     =     1
    Num. of threads =     40
    # Amps to Print =     10
    Print MP2 Amps? =     No
    Analyze T2 Amps =     No
    Print Pair Ener =     No
    Local CC        =     No
    SCS-MP2         =     False
    SCSN-MP2        =     False
    SCS-CCSD        =     False

MP2 correlation energy -0.5654938708308724
                Solving CC Amplitude Equations
                ------------------------------
  Iter             Energy              RMS        T1Diag      D1Diag    New D1Diag    D2Diag
  ----     ---------------------    ---------   ----------  ----------  ----------   --------
     0        -0.565628620886457    0.000e+00    0.007985    0.000000    0.000000    0.000000
     1        -0.547314642996322    8.328e-02    0.017162    0.000000    0.000000    0.000000
     2        -0.564266920914818    3.557e-02    0.019943    0.000000    0.000000    0.000000
     3        -0.568817915590292    2.040e-02    0.026159    0.000000    0.000000    0.000000
     4        -0.569200913953038    1.153e-02    0.030431    0.000000    0.000000    0.000000
     5        -0.569661642882846    6.957e-03    0.034962    0.000000    0.000000    0.000000
     6        -0.569861013276749    2.810e-03    0.036695    0.000000    0.000000    0.000000
     7        -0.569832943416726    7.409e-04    0.036774    0.000000    0.000000    0.000000
     8        -0.569843530950215    3.884e-04    0.036862    0.000000    0.000000    0.000000
     9        -0.569835560169171    1.822e-04    0.036848    0.000000    0.000000    0.000000
    10        -0.569839789671379    8.444e-05    0.036850    0.000000    0.000000    0.000000
    11        -0.569839624436806    3.640e-05    0.036846    0.000000    0.000000    0.000000
    12        -0.569840633306082    1.430e-05    0.036845    0.000000    0.000000    0.000000
    13        -0.569840998638452    6.454e-06    0.036844    0.000000    0.000000    0.000000
    14        -0.569841158085895    3.551e-06    0.036844    0.000000    0.000000    0.000000
    15        -0.569841183774993    1.748e-06    0.036844    0.000000    0.000000    0.000000
    16        -0.569841188719118    8.883e-07    0.036844    0.000000    0.000000    0.000000
    17        -0.569841178587118    4.272e-07    0.036844    0.000000    0.000000    0.000000
    18        -0.569841192531979    2.963e-07    0.036844    0.000000    0.000000    0.000000
    19        -0.569841212631916    1.489e-07    0.036844    0.000000    0.000000    0.000000
    20        -0.569841213552734    6.471e-08    0.036844    0.000000    0.000000    0.000000

    Iterations converged.


    Largest TIA Amplitudes:
              5   0         0.1087977644
              4   0         0.0408925126
              3   0         0.0192420252
              4   4        -0.0189057421
              5   2        -0.0139642087
              4   8         0.0133589175
              4   1        -0.0122902784
              6  35        -0.0121575112
              8  50        -0.0121575112
              5   1        -0.0115818096

    Largest Tia Amplitudes:
              4   0         0.0790486891
              4   1         0.0352260658
              4   5         0.0179110819
              5  36         0.0135698245
              7  51        -0.0135698245
              4   9         0.0126943084
              4   4         0.0101139939
              4   2        -0.0098074308
              4   7        -0.0095814856
              4  16         0.0080331451

    Largest TIJAB Amplitudes:
      7   4  35   0         0.0202926631
      9   4  50   0         0.0202926631
      5   4   3   0        -0.0170788978
      7   5  35   0         0.0123199077
      9   5  50   0         0.0123199077
      9   7  50  35        -0.0119299958
      6   4  36   0         0.0115023464
      8   4  51   0         0.0115023464
      4   3   8   0         0.0114538000
      8   6  27   7         0.0110541589

    Largest Tijab Amplitudes:
      6   4  36   0         0.0183787534
      8   4  51   0        -0.0183787534
      6   4  36   1         0.0145246950
      8   4  51   1        -0.0145246950
      8   6  51  36         0.0115863725
      7   5  28   8        -0.0110667658
      8   6  29  10        -0.0104840895
      6   4  38   0         0.0100754581
      8   4  53   0         0.0100754581
      6   4  36   3        -0.0097310119

    Largest TIjAb Amplitudes:
      4   4   0   1         0.1122714690
      5   4   0   0         0.1121611320
      4   4   0   0         0.1107953824
      4   4   0   2        -0.0313418077
      4   4   0   3        -0.0305984126
      5   4   0   2         0.0258912515
      4   4   2   0        -0.0253475142
      4   4   2   1        -0.0251354496
      5   4   1   0        -0.0250801938
      5   4   2   0        -0.0247526630

    SCF energy       (wfn)                    = -199.225085456181489
    Reference energy (file100)                = -199.225085456181688

    Opposite-spin MP2 correlation energy      =   -0.421476756452587
    Same-spin MP2 correlation energy          =   -0.142863358698817
    Singles MP2 correlation energy            =   -0.001153755679468
    MP2 correlation energy                    =   -0.565493870830872
      * MP2 total energy                      = -199.790579327012551

    Opposite-spin CCSD correlation energy     =   -0.442601917973322
    Same-spin CCSD correlation energy         =   -0.124287943671910
    Singles CCSD correlation energy           =   -0.002951351907502
    CCSD correlation energy                   =   -0.569841213552734
      * CCSD total energy                     = -199.794926669734423

            **************************
            *                        *
            *        CCTRIPLES       *
            *                        *
            **************************


    Wave function   =    CCSD_T
    Reference wfn   =    ROHF changed to UHF for Semicanonical Orbitals

    Nuclear Rep. energy (wfn)                =   33.442300092340837
    SCF energy          (wfn)                = -199.225085456181489
    Reference energy    (file100)            = -199.225085456181688
    CCSD energy         (file100)            =   -0.569841213552734
    Total CCSD energy   (file100)            = -199.794926669734423

    Number of ijk index combinations:
    Spin Case AAA:                                 120
    Spin Case BBB:                                  84
    Spin Case AAB:                                 405
    Spin Case ABB:                                 360
    AAA (T) energy                             =   -0.000389355579975
    BBB (T) energy                             =   -0.000318285262628
    AAB (T) energy                             =   -0.010163352697993
    ABB (T) energy                             =   -0.009626784113325
    (T) energy                                   =   -0.020497777653921
      * CCSD(T) total energy                     = -199.815424447388352


    Psi4 stopped on: Friday, 06 June 2025 03:48PM
    Psi4 wall time for execution: 0:00:33.20

*** Psi4 exiting successfully. Buy a developer a beer!
