
    -----------------------------------------------------------------------
          Psi4: An Open-Source Ab Initio Electronic Structure Package
                               Psi4 1.9.1 release

                         Git: Rev {} zzzzzzz 


    D. G. A. Smith, L. A. Burns, A. C. Simmonett, R. M. Parrish,
    M. C. Schieber, R. Galvelis, P. Kraus, H. Kruse, R. Di Remigio,
    A. Alenaizan, A. M. James, S. Lehtola, J. P. Misiewicz, M. Scheurer,
    R. A. Shaw, J. B. Schriber, Y. Xie, Z. L. Glick, D. A. Sirianni,
    J. S. O'Brien, J. M. Waldrop, A. Kumar, E. G. Hohenstein,
    B. P. Pritchard, B. R. Brooks, H. F. Schaefer III, A. Yu. Sokolov,
    K. Patkowski, A. E. DePrince III, U. Bozkaya, R. A. King,
    F. A. Evangelista, J. M. Turney, T. D. Crawford, C. D. Sherrill,
    J. Chem. Phys. 152(18) 184108 (2020). https://doi.org/10.1063/5.0006002

                            Additional Code Authors
    E. T. Seidl, C. L. Janssen, E. F. Valeev, M. L. Leininger,
    J. F. Gonthier, R. M. Richard, H. R. McAlexander, M. Saitow, X. Wang,
    P. Verma, M. H. Lechner, A. Jiang, S. Behnle, A. G. Heide,
    M. F. Herbst, and D. L. Poole

             Previous Authors, Complete List of Code Contributors,
                       and Citations for Specific Modules
    https://github.com/psi4/psi4/blob/master/codemeta.json
    https://github.com/psi4/psi4/graphs/contributors
    http://psicode.org/psi4manual/master/introduction.html#citing-psifour

    -----------------------------------------------------------------------


    Psi4 started on: Friday, 06 June 2025 03:47PM

    Process ID: 2266675
    Host:       na21
    PSIDATADIR: /software-nas/eb2024/easybuild/software/rocky/8.9/amd/zen4/software/PSI4/1.9.1-foss-2023b/share/psi4
    Memory:     500.0 MiB
    Threads:    40
    
  ==> Input File <==

--------------------------------------------------------------------------
memory 100Gb

molecule{
0 1
H     0.00000000  0.00000000  -0.37159115
H     0.00000000  0.00000000  0.37159115
}

set reference rhf

energy("CCSD(T)/cc-pVTZ")
--------------------------------------------------------------------------

  Memory set to  93.132 GiB by Python driver.

Scratch directory: /scratch/pobleyef/203998/
   => Libint2 <=

    Primary   basis highest AM E, G, H:  5, 4, 3
    Auxiliary basis highest AM E, G, H:  6, 5, 4
    Onebody   basis highest AM E, G, H:  6, 5, 4
    Solid Harmonics ordering:            Gaussian

*** tstart() called on na21
*** at Fri Jun  6 15:47:57 2025

   => Loading Basis Set <=

    Name: CC-PVTZ
    Role: ORBITAL
    Keyword: BASIS
    atoms 1-2 entry H          line    23 file /software-nas/eb2024/easybuild/software/rocky/8.9/amd/zen4/software/PSI4/1.9.1-foss-2023b/share/psi4/basis/cc-pvtz.gbs 


         ---------------------------------------------------------
                                   SCF
               by Justin Turney, Rob Parrish, Andy Simmonett
                          and Daniel G. A. Smith
                              RHF Reference
                       40 Threads,  95367 MiB Core
         ---------------------------------------------------------

  ==> Geometry <==

    Molecular point group: d2h
    Full point group: D_inf_h

    Geometry (in Angstrom), charge = 0, multiplicity = 1:

       Center              X                  Y                   Z               Mass       
    ------------   -----------------  -----------------  -----------------  -----------------
         H            0.000000000000     0.000000000000    -0.371591150000     1.007825032230
         H            0.000000000000     0.000000000000     0.371591150000     1.007825032230

  Running in d2h symmetry.

  Rotational constants: A = ************  B =     60.56903  C =     60.56903 [cm^-1]
  Rotational constants: A = ************  B = 1815813.90894  C = 1815813.90894 [MHz]
  Nuclear repulsion =    0.712042268323667

  Charge       = 0
  Multiplicity = 1
  Electrons    = 2
  Nalpha       = 1
  Nbeta        = 1

  ==> Algorithm <==

  SCF Algorithm Type is PK.
  DIIS enabled.
  MOM disabled.
  Fractional occupation disabled.
  Guess Type is SAD.
  Energy threshold   = 1.00e-08
  Density threshold  = 1.00e-08
  Integral threshold = 1.00e-12

  ==> Primary Basis <==

  Basis Set: CC-PVTZ
    Blend: CC-PVTZ
    Number of shells: 12
    Number of basis functions: 28
    Number of Cartesian functions: 30
    Spherical Harmonics?: true
    Max angular momentum: 2

  ==> Integral Setup <==

  Using in-core PK algorithm.
   Calculation information:
      Number of atoms:                   2
      Number of AO shells:              12
      Number of primitives:             16
      Number of atomic orbitals:        30
      Number of basis functions:        28

      Integral cutoff                 1.00e-12
      Number of threads:                40

  Performing in-core PK
  Using 165242 doubles for integral storage.
  We computed 19650 shell quartets total.
  Whereas there are 3081 unique shell quartets.
   537.78 percent of shell quartets recomputed by reordering.

  ==> DiskJK: Disk-Based J/K Matrices <==

    J tasked:                  Yes
    K tasked:                  Yes
    wK tasked:                  No
    Memory [MiB]:            71525
    Schwarz Cutoff:          1E-12

    OpenMP threads:             40

  Minimum eigenvalue in the overlap matrix is 3.7379917736E-03.
  Reciprocal condition number of the overlap matrix is 1.0507865181E-03.
    Using symmetric orthogonalization.

  ==> Pre-Iterations <==

  SCF Guess: Superposition of Atomic Densities via on-the-fly atomic UHF (no occupation information).

   -------------------------
    Irrep   Nso     Nmo    
   -------------------------
     Ag         7       7 
     B1g        1       1 
     B2g        3       3 
     B3g        3       3 
     Au         1       1 
     B1u        7       7 
     B2u        3       3 
     B3u        3       3 
   -------------------------
    Total      28      28
   -------------------------

  ==> Iterations <==

                        Total Energy        Delta E     RMS |[F,P]|

   @RHF iter SAD:    -0.84266703099550   -8.42667e-01   0.00000e+00 
   @RHF iter   1:    -1.13002430469839   -2.87357e-01   4.05714e-03 ADIIS/DIIS
   @RHF iter   2:    -1.13281279444791   -2.78849e-03   8.19967e-04 ADIIS/DIIS
   @RHF iter   3:    -1.13293519376714   -1.22399e-04   6.63044e-05 DIIS
   @RHF iter   4:    -1.13293572998014   -5.36213e-07   2.77330e-06 DIIS
   @RHF iter   5:    -1.13293573072883   -7.48689e-10   1.83892e-07 DIIS
   @RHF iter   6:    -1.13293573073300   -4.16933e-12   1.48316e-08 DIIS
   @RHF iter   7:    -1.13293573073304   -3.50830e-14   9.04064e-11 DIIS
  Energy and wave function converged.


  ==> Post-Iterations <==

    Orbital Energies [Eh]
    ---------------------

    Doubly Occupied:                                                      

       1Ag    -0.593711  

    Virtual:                                                              

       1B1u    0.166810     2Ag     0.305297     2B1u    0.642639  
       1B2u    0.692364     1B3u    0.692364     3Ag     1.095773  
       1B3g    1.119599     1B2g    1.119599     3B1u    1.528434  
       4B1u    2.337116     4Ag     2.408555     1B1g    3.175052  
       5Ag     3.175052     2B2u    3.410880     2B3u    3.410880  
       6Ag     3.673944     2B2g    3.895506     2B3g    3.895506  
       1Au     4.081953     5B1u    4.081953     3B2u    4.112003  
       3B3u    4.112003     6B1u    4.649317     3B2g    5.720574  
       3B3g    5.720574     7Ag     5.796185     7B1u    6.954246  

    Final Occupation by Irrep:
             Ag   B1g   B2g   B3g    Au   B1u   B2u   B3u 
    DOCC [     1,    0,    0,    0,    0,    0,    0,    0 ]
    NA   [     1,    0,    0,    0,    0,    0,    0,    0 ]
    NB   [     1,    0,    0,    0,    0,    0,    0,    0 ]

  @RHF Final Energy:    -1.13293573073304

   => Energetics <=

    Nuclear Repulsion Energy =              0.7120422683236670
    One-Electron Energy =                  -2.5025349319990267
    Two-Electron Energy =                   0.6575569329423223
    Total Energy =                         -1.1329357307330372

Computation Completed


Properties will be evaluated at   0.000000,   0.000000,   0.000000 [a0]

Properties computed using the SCF density matrix


 Multipole Moments:

 ------------------------------------------------------------------------------------
     Multipole            Electronic (a.u.)      Nuclear  (a.u.)        Total (a.u.)
 ------------------------------------------------------------------------------------

 L = 1.  Multiply by 2.5417464519 to convert [e a0] to [Debye]
 Dipole X            :          0.0000000            0.0000000            0.0000000
 Dipole Y            :          0.0000000            0.0000000            0.0000000
 Dipole Z            :          0.0000000            0.0000000            0.0000000
 Magnitude           :                                                    0.0000000

 ------------------------------------------------------------------------------------

*** tstop() called on na21 at Fri Jun  6 15:47:58 2025
Module time:
	user time   =      23.41 seconds =       0.39 minutes
	system time =       0.11 seconds =       0.00 minutes
	total time  =          1 seconds =       0.02 minutes
Total time:
	user time   =      23.41 seconds =       0.39 minutes
	system time =       0.11 seconds =       0.00 minutes
	total time  =          1 seconds =       0.02 minutes
 MINTS: Wrapper to libmints.
   by Justin Turney

   Calculation information:
      Number of threads:                40
      Number of atoms:                   2
      Number of AO shells:              12
      Number of SO shells:               6
      Number of primitives:             16
      Number of atomic orbitals:        30
      Number of basis functions:        28

      Number of irreps:                  8
      Integral cutoff                 1.00e-12
      Number of functions per irrep: [   7    1    3    3    1    7    3    3 ]

 OEINTS: Overlap, kinetic, potential, dipole, and quadrupole integrals
         stored in file 35.

      Computing two-electron integrals...done
      Computed 10381 non-zero two-electron integrals.
        Stored in file 33.


*** tstart() called on na21
*** at Fri Jun  6 15:47:58 2025


	Wfn Parameters:
	--------------------
	Wavefunction         = CCSD_T
	Number of irreps     = 8
	Number of MOs        = 28
	Number of active MOs = 28
	AO-Basis             = NONE
	Semicanonical        = false
	Reference            = RHF
	Print Level          = 1

	IRREP	# MOs	# FZDC	# DOCC	# SOCC	# VIRT	# FZVR
	-----	-----	------	------	------	------	------
	 Ag	   7	    0	    1	    0	    6	    0
	 B1g	   1	    0	    0	    0	    1	    0
	 B2g	   3	    0	    0	    0	    3	    0
	 B3g	   3	    0	    0	    0	    3	    0
	 Au	   1	    0	    0	    0	    1	    0
	 B1u	   7	    0	    0	    0	    7	    0
	 B2u	   3	    0	    0	    0	    3	    0
	 B3u	   3	    0	    0	    0	    3	    0
	Transforming integrals...
	IWL integrals will be deleted.
	(OO|OO)...
	Presorting SO-basis two-electron integrals.
	Sorting File: SO Ints (nn|nn) nbuckets = 1
	Constructing frozen core operators
	Starting first half-transformation.
	Sorting half-transformed integrals.
	First half integral transformation complete.
	Starting second half-transformation.
	Two-electron integral transformation complete.
	(OO|OV)...
	Starting second half-transformation.
	Two-electron integral transformation complete.
	(OO|VV)...
	Starting second half-transformation.
	Two-electron integral transformation complete.
	(OV|OO)...
	Starting first half-transformation.
	Sorting half-transformed integrals.
	First half integral transformation complete.
	Starting second half-transformation.
	Two-electron integral transformation complete.
	(OV|OV)...
	Starting second half-transformation.
	Two-electron integral transformation complete.
	(OV|VV)...
	Starting second half-transformation.
	Two-electron integral transformation complete.
	(VV|OO)...
	Starting first half-transformation.
	Sorting half-transformed integrals.
	First half integral transformation complete.
	Starting second half-transformation.
	Two-electron integral transformation complete.
	(VV|OV)...
	Starting second half-transformation.
	Two-electron integral transformation complete.
	(VV|VV)...
	Starting second half-transformation.
	Two-electron integral transformation complete.
	Frozen core energy     =      0.00000000000000

	Size of irrep 0 of <ab|cd> integrals:      0.015 (MW) /      0.121 (MB)
	Size of irrep 1 of <ab|cd> integrals:      0.004 (MW) /      0.031 (MB)
	Size of irrep 2 of <ab|cd> integrals:      0.008 (MW) /      0.065 (MB)
	Size of irrep 3 of <ab|cd> integrals:      0.008 (MW) /      0.065 (MB)
	Size of irrep 4 of <ab|cd> integrals:      0.004 (MW) /      0.031 (MB)
	Size of irrep 5 of <ab|cd> integrals:      0.015 (MW) /      0.119 (MB)
	Size of irrep 6 of <ab|cd> integrals:      0.008 (MW) /      0.065 (MB)
	Size of irrep 7 of <ab|cd> integrals:      0.008 (MW) /      0.065 (MB)
	Total:                                     0.070 (MW) /      0.561 (MB)

	Size of irrep 0 of <ia|bc> integrals:      0.001 (MW) /      0.006 (MB)
	Size of irrep 1 of <ia|bc> integrals:      0.000 (MW) /      0.000 (MB)
	Size of irrep 2 of <ia|bc> integrals:      0.000 (MW) /      0.002 (MB)
	Size of irrep 3 of <ia|bc> integrals:      0.000 (MW) /      0.002 (MB)
	Size of irrep 4 of <ia|bc> integrals:      0.000 (MW) /      0.000 (MB)
	Size of irrep 5 of <ia|bc> integrals:      0.001 (MW) /      0.007 (MB)
	Size of irrep 6 of <ia|bc> integrals:      0.000 (MW) /      0.002 (MB)
	Size of irrep 7 of <ia|bc> integrals:      0.000 (MW) /      0.002 (MB)
	Total:                                     0.003 (MW) /      0.022 (MB)

	Size of irrep 0 of tijab amplitudes:       0.000 (MW) /      0.001 (MB)
	Size of irrep 1 of tijab amplitudes:       0.000 (MW) /      0.000 (MB)
	Size of irrep 2 of tijab amplitudes:       0.000 (MW) /      0.000 (MB)
	Size of irrep 3 of tijab amplitudes:       0.000 (MW) /      0.000 (MB)
	Size of irrep 4 of tijab amplitudes:       0.000 (MW) /      0.000 (MB)
	Size of irrep 5 of tijab amplitudes:       0.000 (MW) /      0.000 (MB)
	Size of irrep 6 of tijab amplitudes:       0.000 (MW) /      0.000 (MB)
	Size of irrep 7 of tijab amplitudes:       0.000 (MW) /      0.000 (MB)
	Total:                                     0.000 (MW) /      0.001 (MB)

	Nuclear Rep. energy          =      0.71204226832367
	SCF energy                   =     -1.13293573073304
	One-electron energy          =     -2.50253493142302
	Two-electron energy          =      0.65755693236631
	Reference energy             =     -1.13293573073304

*** tstop() called on na21 at Fri Jun  6 15:47:58 2025
Module time:
	user time   =       0.07 seconds =       0.00 minutes
	system time =       0.03 seconds =       0.00 minutes
	total time  =          0 seconds =       0.00 minutes
Total time:
	user time   =      23.84 seconds =       0.40 minutes
	system time =       0.14 seconds =       0.00 minutes
	total time  =          1 seconds =       0.02 minutes
            **************************
            *                        *
            *        CCENERGY        *
            *                        *
            **************************

    Nuclear Rep. energy (wfn)     =    0.712042268323667
    SCF energy          (wfn)     =   -1.132935730733037
    Reference energy    (file100) =   -1.132935730733037

    Input parameters:
    -----------------
    Wave function   =     CCSD_T
    Reference wfn   =     RHF
    Brueckner       =     No
    Memory (Mbytes) =     100000.0
    Maxiter         =     50
    R_Convergence   =     1.0e-07
    E_Convergence   =     1.0e-06
    Restart         =     Yes
    DIIS            =     Yes
    AO Basis        =     NONE
    ABCD            =     NEW
    Cache Level     =     2
    Cache Type      =     LOW
    Print Level     =     1
    Num. of threads =     40
    # Amps to Print =     10
    Print MP2 Amps? =     No
    Analyze T2 Amps =     No
    Print Pair Ener =     No
    Local CC        =     No
    SCS-MP2         =     False
    SCSN-MP2        =     False
    SCS-CCSD        =     False

MP2 correlation energy -0.0316878706668202
                Solving CC Amplitude Equations
                ------------------------------
  Iter             Energy              RMS        T1Diag      D1Diag    New D1Diag    D2Diag
  ----     ---------------------    ---------   ----------  ----------  ----------   --------
     0        -0.031687870666820    0.000e+00    0.000000    0.000000    0.000000    0.100803
     1        -0.036994882384061    2.519e-02    0.003669    0.005189    0.005189    0.123133
     2        -0.039363732403374    8.834e-03    0.005401    0.007639    0.007639    0.134296
     3        -0.039400837651970    1.090e-03    0.005596    0.007914    0.007914    0.134863
     4        -0.039401866165677    1.267e-04    0.005642    0.007980    0.007980    0.134887
     5        -0.039400448225924    1.377e-05    0.005648    0.007988    0.007988    0.134877
     6        -0.039400766261979    2.371e-06    0.005650    0.007990    0.007990    0.134878
     7        -0.039400748621807    3.999e-07    0.005650    0.007990    0.007990    0.134878
     8        -0.039400749075399    4.212e-08    0.005650    0.007990    0.007990    0.134878

    Iterations converged.


    Largest TIA Amplitudes:
              0   0         0.0067272491
              0   2         0.0030148413
              0   1         0.0026659193
              0   4        -0.0013636445
              0   5         0.0007289539

    Largest TIjAb Amplitudes:
      0   0  15  15        -0.0564861926
      0   0  14  15        -0.0448955388
      0   0  15  14        -0.0448955388
      0   0  21  21        -0.0422467352
      0   0  24  24        -0.0422467352
      0   0  14  14        -0.0401267533
      0   0   0   0        -0.0386211902
      0   0  15  17        -0.0213949478
      0   0  17  15        -0.0213949478
      0   0   0   2        -0.0168420436

    SCF energy       (wfn)                    =   -1.132935730733037
    Reference energy (file100)                =   -1.132935730733037

    Opposite-spin MP2 correlation energy      =   -0.031687870666820
    Same-spin MP2 correlation energy          =   -0.000000000000000
    Singles MP2 correlation energy            =   -0.000000000000000
    MP2 correlation energy                    =   -0.031687870666820
      * MP2 total energy                      =   -1.164623601399857

    Opposite-spin CCSD correlation energy     =   -0.039400749075399
    Same-spin CCSD correlation energy         =   -0.000000000000000
    Singles CCSD correlation energy           =    0.000000000000000
    CCSD correlation energy                   =   -0.039400749075399
      * CCSD total energy                     =   -1.172336479808436

            **************************
            *                        *
            *        CCTRIPLES       *
            *                        *
            **************************


    Wave function   =    CCSD_T
    Reference wfn   =      RHF

    Nuclear Rep. energy (wfn)                =    0.712042268323667
    SCF energy          (wfn)                =   -1.132935730733037
    Reference energy    (file100)            =   -1.132935730733037
    CCSD energy         (file100)            =   -0.039400749075399
    Total CCSD energy   (file100)            =   -1.172336479808436

    Number of ijk index combinations:                1
    Memory available in words               :     12500000000
    Approx. words needed per explicit thread:            1372
    Number of threads for explicit ijk threading:   40

    (T) energy                                =    0.000000000000000
      * CCSD(T) total energy                  =   -1.172336479808436


    Psi4 stopped on: Friday, 06 June 2025 03:47PM
    Psi4 wall time for execution: 0:00:01.10

*** Psi4 exiting successfully. Buy a developer a beer!
