
    -----------------------------------------------------------------------
          Psi4: An Open-Source Ab Initio Electronic Structure Package
                               Psi4 1.9.1 release

                         Git: Rev {} zzzzzzz 


    D. G. A. Smith, L. A. Burns, A. C. Simmonett, R. M. Parrish,
    M. C. Schieber, R. Galvelis, P. Kraus, H. Kruse, R. Di Remigio,
    A. Alenaizan, A. M. James, S. Lehtola, J. P. Misiewicz, M. Scheurer,
    R. A. Shaw, J. B. Schriber, Y. Xie, Z. L. Glick, D. A. Sirianni,
    J. S. O'Brien, J. M. Waldrop, A. Kumar, E. G. Hohenstein,
    B. P. Pritchard, B. R. Brooks, H. F. Schaefer III, A. Yu. Sokolov,
    K. Patkowski, A. E. DePrince III, U. Bozkaya, R. A. King,
    F. A. Evangelista, J. M. Turney, T. D. Crawford, C. D. Sherrill,
    J. Chem. Phys. 152(18) 184108 (2020). https://doi.org/10.1063/5.0006002

                            Additional Code Authors
    E. T. Seidl, C. L. Janssen, E. F. Valeev, M. L. Leininger,
    J. F. Gonthier, R. M. Richard, H. R. McAlexander, M. Saitow, X. Wang,
    P. Verma, M. H. Lechner, A. Jiang, S. Behnle, A. G. Heide,
    M. F. Herbst, and D. L. Poole

             Previous Authors, Complete List of Code Contributors,
                       and Citations for Specific Modules
    https://github.com/psi4/psi4/blob/master/codemeta.json
    https://github.com/psi4/psi4/graphs/contributors
    http://psicode.org/psi4manual/master/introduction.html#citing-psifour

    -----------------------------------------------------------------------


    Psi4 started on: Friday, 06 June 2025 03:48PM

    Process ID: 2266784
    Host:       na21
    PSIDATADIR: /software-nas/eb2024/easybuild/software/rocky/8.9/amd/zen4/software/PSI4/1.9.1-foss-2023b/share/psi4
    Memory:     500.0 MiB
    Threads:    40
    
  ==> Input File <==

--------------------------------------------------------------------------
memory 100Gb

molecule{
0 1
N     0.00000000  0.00000000  -0.54542913
N     0.00000000  0.00000000  0.54542913
}

set reference rhf

energy("CCSD(T)/cc-pVTZ")
--------------------------------------------------------------------------

  Memory set to  93.132 GiB by Python driver.

Scratch directory: /scratch/pobleyef/203999/
   => Libint2 <=

    Primary   basis highest AM E, G, H:  5, 4, 3
    Auxiliary basis highest AM E, G, H:  6, 5, 4
    Onebody   basis highest AM E, G, H:  6, 5, 4
    Solid Harmonics ordering:            Gaussian

*** tstart() called on na21
*** at Fri Jun  6 15:48:01 2025

   => Loading Basis Set <=

    Name: CC-PVTZ
    Role: ORBITAL
    Keyword: BASIS
    atoms 1-2 entry N          line   224 file /software-nas/eb2024/easybuild/software/rocky/8.9/amd/zen4/software/PSI4/1.9.1-foss-2023b/share/psi4/basis/cc-pvtz.gbs 


         ---------------------------------------------------------
                                   SCF
               by Justin Turney, Rob Parrish, Andy Simmonett
                          and Daniel G. A. Smith
                              RHF Reference
                       40 Threads,  95367 MiB Core
         ---------------------------------------------------------

  ==> Geometry <==

    Molecular point group: d2h
    Full point group: D_inf_h

    Geometry (in Angstrom), charge = 0, multiplicity = 1:

       Center              X                  Y                   Z               Mass       
    ------------   -----------------  -----------------  -----------------  -----------------
         N            0.000000000000     0.000000000000    -0.545429130000    14.003074004430
         N            0.000000000000     0.000000000000     0.545429130000    14.003074004430

  Running in d2h symmetry.

  Rotational constants: A = ************  B =      2.02333  C =      2.02333 [cm^-1]
  Rotational constants: A = ************  B =  60657.87085  C =  60657.87085 [MHz]
  Nuclear repulsion =   23.769983941662595

  Charge       = 0
  Multiplicity = 1
  Electrons    = 14
  Nalpha       = 7
  Nbeta        = 7

  ==> Algorithm <==

  SCF Algorithm Type is PK.
  DIIS enabled.
  MOM disabled.
  Fractional occupation disabled.
  Guess Type is SAD.
  Energy threshold   = 1.00e-08
  Density threshold  = 1.00e-08
  Integral threshold = 1.00e-12

  ==> Primary Basis <==

  Basis Set: CC-PVTZ
    Blend: CC-PVTZ
    Number of shells: 20
    Number of basis functions: 60
    Number of Cartesian functions: 70
    Spherical Harmonics?: true
    Max angular momentum: 3

  ==> Integral Setup <==

  Using in-core PK algorithm.
   Calculation information:
      Number of atoms:                   2
      Number of AO shells:              20
      Number of primitives:             52
      Number of atomic orbitals:        70
      Number of basis functions:        60

      Integral cutoff                 1.00e-12
      Number of threads:                40

  Performing in-core PK
  Using 3350730 doubles for integral storage.
  We computed 123469 shell quartets total.
  Whereas there are 22155 unique shell quartets.
   457.30 percent of shell quartets recomputed by reordering.

  ==> DiskJK: Disk-Based J/K Matrices <==

    J tasked:                  Yes
    K tasked:                  Yes
    wK tasked:                  No
    Memory [MiB]:            71525
    Schwarz Cutoff:          1E-12

    OpenMP threads:             40

  Minimum eigenvalue in the overlap matrix is 2.2343790360E-03.
  Reciprocal condition number of the overlap matrix is 5.9451595810E-04.
    Using symmetric orthogonalization.

  ==> Pre-Iterations <==

  SCF Guess: Superposition of Atomic Densities via on-the-fly atomic UHF (no occupation information).

   -------------------------
    Irrep   Nso     Nmo    
   -------------------------
     Ag        13      13 
     B1g        3       3 
     B2g        7       7 
     B3g        7       7 
     Au         3       3 
     B1u       13      13 
     B2u        7       7 
     B3u        7       7 
   -------------------------
    Total      60      60
   -------------------------

  ==> Iterations <==

                        Total Energy        Delta E     RMS |[F,P]|

   @RHF iter SAD:  -108.10531195918735   -1.08105e+02   0.00000e+00 
   @RHF iter   1:  -108.97862646359536   -8.73315e-01   4.87612e-03 ADIIS/DIIS
   @RHF iter   2:  -108.98443712568228   -5.81066e-03   8.82485e-04 ADIIS/DIIS
   @RHF iter   3:  -108.98465561561147   -2.18490e-04   1.62405e-04 ADIIS/DIIS
   @RHF iter   4:  -108.98466802005846   -1.24044e-05   3.60136e-05 DIIS
   @RHF iter   5:  -108.98466864666929   -6.26611e-07   5.57601e-06 DIIS
   @RHF iter   6:  -108.98466865507108   -8.40178e-09   9.71519e-07 DIIS
   @RHF iter   7:  -108.98466865544322   -3.72140e-10   4.94504e-08 DIIS
   @RHF iter   8:  -108.98466865544421   -9.94760e-13   5.56755e-09 DIIS
  Energy and wave function converged.


  ==> Post-Iterations <==

    Orbital Energies [Eh]
    ---------------------

    Doubly Occupied:                                                      

       1Ag   -15.679205     1B1u  -15.675520     2Ag    -1.474613  
       2B1u   -0.775212     3Ag    -0.632980     1B3u   -0.614969  
       1B2u   -0.614969  

    Virtual:                                                              

       1B3g    0.165307     1B2g    0.165307     3B1u    0.426173  
       4Ag     0.560889     2B3u    0.561383     2B2u    0.561383  
       5Ag     0.673118     2B3g    0.733185     2B2g    0.733185  
       4B1u    0.928930     6Ag     1.047950     1B1g    1.047950  
       5B1u    1.099345     3B3u    1.347598     3B2u    1.347598  
       1Au     1.515563     6B1u    1.515563     7Ag     1.931288  
       3B2g    1.942404     3B3g    1.942404     7B1u    2.265168  
       4B2u    3.165303     4B3u    3.165303     8Ag     3.307056  
       4B2g    3.516262     4B3g    3.516262     8B1u    3.751732  
       2B1g    3.831182     9Ag     3.831182     5B3u    3.954773  
       5B2u    3.954773     6B3u    3.994345     6B2u    3.994345  
      10Ag     4.400971     5B2g    4.453217     5B3g    4.453217  
      11Ag     4.773614     3B1g    4.773614     6B2g    4.876463  
       6B3g    4.876463     2Au     4.909281     9B1u    4.909281  
      10B1u    5.044190     3Au     5.325105    11B1u    5.325105  
       7B2u    5.430264     7B3u    5.430264    12Ag     5.548313  
      12B1u    6.205971     7B2g    6.891482     7B3g    6.891482  
      13Ag     7.067751    13B1u   16.971130  

    Final Occupation by Irrep:
             Ag   B1g   B2g   B3g    Au   B1u   B2u   B3u 
    DOCC [     3,    0,    0,    0,    0,    2,    1,    1 ]
    NA   [     3,    0,    0,    0,    0,    2,    1,    1 ]
    NB   [     3,    0,    0,    0,    0,    2,    1,    1 ]

  @RHF Final Energy:  -108.98466865544421

   => Energetics <=

    Nuclear Repulsion Energy =             23.7699839416625949
    One-Electron Energy =                -194.5743686774749790
    Two-Electron Energy =                  61.8197160803681811
    Total Energy =                       -108.9846686554442101

Computation Completed


Properties will be evaluated at   0.000000,   0.000000,   0.000000 [a0]

Properties computed using the SCF density matrix


 Multipole Moments:

 ------------------------------------------------------------------------------------
     Multipole            Electronic (a.u.)      Nuclear  (a.u.)        Total (a.u.)
 ------------------------------------------------------------------------------------

 L = 1.  Multiply by 2.5417464519 to convert [e a0] to [Debye]
 Dipole X            :          0.0000000            0.0000000            0.0000000
 Dipole Y            :          0.0000000            0.0000000            0.0000000
 Dipole Z            :          0.0000000            0.0000000            0.0000000
 Magnitude           :                                                    0.0000000

 ------------------------------------------------------------------------------------

*** tstop() called on na21 at Fri Jun  6 15:48:02 2025
Module time:
	user time   =      11.42 seconds =       0.19 minutes
	system time =       0.49 seconds =       0.01 minutes
	total time  =          1 seconds =       0.02 minutes
Total time:
	user time   =      11.42 seconds =       0.19 minutes
	system time =       0.49 seconds =       0.01 minutes
	total time  =          1 seconds =       0.02 minutes
 MINTS: Wrapper to libmints.
   by Justin Turney

   Calculation information:
      Number of threads:                40
      Number of atoms:                   2
      Number of AO shells:              20
      Number of SO shells:              10
      Number of primitives:             52
      Number of atomic orbitals:        70
      Number of basis functions:        60

      Number of irreps:                  8
      Integral cutoff                 1.00e-12
      Number of functions per irrep: [  13    3    7    7    3   13    7    7 ]

 OEINTS: Overlap, kinetic, potential, dipole, and quadrupole integrals
         stored in file 35.

      Computing two-electron integrals...done
      Computed 180477 non-zero two-electron integrals.
        Stored in file 33.


*** tstart() called on na21
*** at Fri Jun  6 15:48:02 2025


	Wfn Parameters:
	--------------------
	Wavefunction         = CCSD_T
	Number of irreps     = 8
	Number of MOs        = 60
	Number of active MOs = 60
	AO-Basis             = NONE
	Semicanonical        = false
	Reference            = RHF
	Print Level          = 1

	IRREP	# MOs	# FZDC	# DOCC	# SOCC	# VIRT	# FZVR
	-----	-----	------	------	------	------	------
	 Ag	   13	    0	    3	    0	    10	    0
	 B1g	   3	    0	    0	    0	    3	    0
	 B2g	   7	    0	    0	    0	    7	    0
	 B3g	   7	    0	    0	    0	    7	    0
	 Au	   3	    0	    0	    0	    3	    0
	 B1u	   13	    0	    2	    0	    11	    0
	 B2u	   7	    0	    1	    0	    6	    0
	 B3u	   7	    0	    1	    0	    6	    0
	Transforming integrals...
	IWL integrals will be deleted.
	(OO|OO)...
	Presorting SO-basis two-electron integrals.
	Sorting File: SO Ints (nn|nn) nbuckets = 1
	Constructing frozen core operators
	Starting first half-transformation.
	Sorting half-transformed integrals.
	First half integral transformation complete.
	Starting second half-transformation.
	Two-electron integral transformation complete.
	(OO|OV)...
	Starting second half-transformation.
	Two-electron integral transformation complete.
	(OO|VV)...
	Starting second half-transformation.
	Two-electron integral transformation complete.
	(OV|OO)...
	Starting first half-transformation.
	Sorting half-transformed integrals.
	First half integral transformation complete.
	Starting second half-transformation.
	Two-electron integral transformation complete.
	(OV|OV)...
	Starting second half-transformation.
	Two-electron integral transformation complete.
	(OV|VV)...
	Starting second half-transformation.
	Two-electron integral transformation complete.
	(VV|OO)...
	Starting first half-transformation.
	Sorting half-transformed integrals.
	First half integral transformation complete.
	Starting second half-transformation.
	Two-electron integral transformation complete.
	(VV|OV)...
	Starting second half-transformation.
	Two-electron integral transformation complete.
	(VV|VV)...
	Starting second half-transformation.
	Two-electron integral transformation complete.
	Frozen core energy     =      0.00000000000000

	Size of irrep 0 of <ab|cd> integrals:      0.167 (MW) /      1.338 (MB)
	Size of irrep 1 of <ab|cd> integrals:      0.088 (MW) /      0.701 (MB)
	Size of irrep 2 of <ab|cd> integrals:      0.122 (MW) /      0.980 (MB)
	Size of irrep 3 of <ab|cd> integrals:      0.122 (MW) /      0.980 (MB)
	Size of irrep 4 of <ab|cd> integrals:      0.086 (MW) /      0.691 (MB)
	Size of irrep 5 of <ab|cd> integrals:      0.165 (MW) /      1.319 (MB)
	Size of irrep 6 of <ab|cd> integrals:      0.124 (MW) /      0.991 (MB)
	Size of irrep 7 of <ab|cd> integrals:      0.124 (MW) /      0.991 (MB)
	Total:                                     0.999 (MW) /      7.992 (MB)

	Size of irrep 0 of <ia|bc> integrals:      0.026 (MW) /      0.209 (MB)
	Size of irrep 1 of <ia|bc> integrals:      0.008 (MW) /      0.064 (MB)
	Size of irrep 2 of <ia|bc> integrals:      0.016 (MW) /      0.132 (MB)
	Size of irrep 3 of <ia|bc> integrals:      0.016 (MW) /      0.132 (MB)
	Size of irrep 4 of <ia|bc> integrals:      0.009 (MW) /      0.068 (MB)
	Size of irrep 5 of <ia|bc> integrals:      0.027 (MW) /      0.218 (MB)
	Size of irrep 6 of <ia|bc> integrals:      0.016 (MW) /      0.127 (MB)
	Size of irrep 7 of <ia|bc> integrals:      0.016 (MW) /      0.127 (MB)
	Total:                                     0.134 (MW) /      1.076 (MB)

	Size of irrep 0 of tijab amplitudes:       0.006 (MW) /      0.049 (MB)
	Size of irrep 1 of tijab amplitudes:       0.001 (MW) /      0.005 (MB)
	Size of irrep 2 of tijab amplitudes:       0.001 (MW) /      0.011 (MB)
	Size of irrep 3 of tijab amplitudes:       0.001 (MW) /      0.011 (MB)
	Size of irrep 4 of tijab amplitudes:       0.000 (MW) /      0.000 (MB)
	Size of irrep 5 of tijab amplitudes:       0.005 (MW) /      0.039 (MB)
	Size of irrep 6 of tijab amplitudes:       0.002 (MW) /      0.017 (MB)
	Size of irrep 7 of tijab amplitudes:       0.002 (MW) /      0.017 (MB)
	Total:                                     0.019 (MW) /      0.149 (MB)

	Nuclear Rep. energy          =     23.76998394166259
	SCF energy                   =   -108.98466865544421
	One-electron energy          =   -194.57436874647391
	Two-electron energy          =     61.81971614936708
	Reference energy             =   -108.98466865544424

*** tstop() called on na21 at Fri Jun  6 15:48:03 2025
Module time:
	user time   =       0.07 seconds =       0.00 minutes
	system time =       0.09 seconds =       0.00 minutes
	total time  =          1 seconds =       0.02 minutes
Total time:
	user time   =      12.14 seconds =       0.20 minutes
	system time =       0.67 seconds =       0.01 minutes
	total time  =          2 seconds =       0.03 minutes
            **************************
            *                        *
            *        CCENERGY        *
            *                        *
            **************************

    Nuclear Rep. energy (wfn)     =   23.769983941662595
    SCF energy          (wfn)     = -108.984668655444210
    Reference energy    (file100) = -108.984668655444239

    Input parameters:
    -----------------
    Wave function   =     CCSD_T
    Reference wfn   =     RHF
    Brueckner       =     No
    Memory (Mbytes) =     100000.0
    Maxiter         =     50
    R_Convergence   =     1.0e-07
    E_Convergence   =     1.0e-06
    Restart         =     Yes
    DIIS            =     Yes
    AO Basis        =     NONE
    ABCD            =     NEW
    Cache Level     =     2
    Cache Type      =     LOW
    Print Level     =     1
    Num. of threads =     40
    # Amps to Print =     10
    Print MP2 Amps? =     No
    Analyze T2 Amps =     No
    Print Pair Ener =     No
    Local CC        =     No
    SCS-MP2         =     False
    SCSN-MP2        =     False
    SCS-CCSD        =     False

MP2 correlation energy -0.3976929538425694
                Solving CC Amplitude Equations
                ------------------------------
  Iter             Energy              RMS        T1Diag      D1Diag    New D1Diag    D2Diag
  ----     ---------------------    ---------   ----------  ----------  ----------   --------
     0        -0.397692953842569    0.000e+00    0.000000    0.000000    0.000000    0.162217
     1        -0.380748836995849    5.828e-02    0.010012    0.024778    0.024778    0.153617
     2        -0.393528807867141    2.330e-02    0.009447    0.023260    0.023260    0.163682
     3        -0.396060569530585    8.217e-03    0.010629    0.026140    0.026140    0.168859
     4        -0.396298388742467    2.091e-03    0.010670    0.026242    0.026242    0.170258
     5        -0.396362290006696    4.448e-04    0.010674    0.026262    0.026262    0.170555
     6        -0.396363856224255    9.706e-05    0.010667    0.026248    0.026248    0.170572
     7        -0.396366460671222    1.994e-05    0.010666    0.026247    0.026247    0.170579
     8        -0.396365908107012    3.258e-06    0.010666    0.026247    0.026247    0.170578
     9        -0.396365835397204    6.010e-07    0.010666    0.026247    0.026247    0.170578
    10        -0.396365856404699    1.547e-07    0.010666    0.026247    0.026247    0.170578
    11        -0.396365851095428    3.882e-08    0.010666    0.026247    0.026247    0.170578

    Iterations converged.


    Largest TIA Amplitudes:
              5  41         0.0201586948
              6  47         0.0201586948
              5  42         0.0132692133
              6  48         0.0132692133
              5  43         0.0091521930
              6  49         0.0091521930
              4  32         0.0090096653
              4  31        -0.0068808897
              2   1        -0.0054725150
              5  45         0.0046423814

    Largest TIjAb Amplitudes:
      5   5  20  20        -0.0927053345
      6   6  13  13        -0.0927053345
      5   6  20  13        -0.0583058285
      6   5  13  20        -0.0583058285
      4   4  13  13        -0.0426487823
      4   4  20  20        -0.0426487823
      5   5  20  21        -0.0394498329
      5   5  21  20        -0.0394498329
      6   6  13  14        -0.0394498329
      6   6  14  13        -0.0394498329

    SCF energy       (wfn)                    = -108.984668655444210
    Reference energy (file100)                = -108.984668655444239

    Opposite-spin MP2 correlation energy      =   -0.297551536368130
    Same-spin MP2 correlation energy          =   -0.100141417474439
    Singles MP2 correlation energy            =   -0.000000000000000
    MP2 correlation energy                    =   -0.397692953842569
      * MP2 total energy                      = -109.382361609286804

    Opposite-spin CCSD correlation energy     =   -0.312426184495229
    Same-spin CCSD correlation energy         =   -0.083939666600198
    Singles CCSD correlation energy           =    0.000000000000000
    CCSD correlation energy                   =   -0.396365851095428
      * CCSD total energy                     = -109.381034506539663

            **************************
            *                        *
            *        CCTRIPLES       *
            *                        *
            **************************


    Wave function   =    CCSD_T
    Reference wfn   =      RHF

    Nuclear Rep. energy (wfn)                =   23.769983941662595
    SCF energy          (wfn)                = -108.984668655444210
    Reference energy    (file100)            = -108.984668655444239
    CCSD energy         (file100)            =   -0.396365851095428
    Total CCSD energy   (file100)            = -109.381034506539663

    Number of ijk index combinations:               84
    Memory available in words               :     12500000000
    Approx. words needed per explicit thread:            5324
    Number of threads for explicit ijk threading:   40

    (T) energy                                =   -0.018606887364661
      * CCSD(T) total energy                  = -109.399641393904332


    Psi4 stopped on: Friday, 06 June 2025 03:48PM
    Psi4 wall time for execution: 0:00:01.98

*** Psi4 exiting successfully. Buy a developer a beer!
