
    -----------------------------------------------------------------------
          Psi4: An Open-Source Ab Initio Electronic Structure Package
                               Psi4 1.9.1 release

                         Git: Rev {} zzzzzzz 


    D. G. A. Smith, L. A. Burns, A. C. Simmonett, R. M. Parrish,
    M. C. Schieber, R. Galvelis, P. Kraus, H. Kruse, R. Di Remigio,
    A. Alenaizan, A. M. James, S. Lehtola, J. P. Misiewicz, M. Scheurer,
    R. A. Shaw, J. B. Schriber, Y. Xie, Z. L. Glick, D. A. Sirianni,
    J. S. O'Brien, J. M. Waldrop, A. Kumar, E. G. Hohenstein,
    B. P. Pritchard, B. R. Brooks, H. F. Schaefer III, A. Yu. Sokolov,
    K. Patkowski, A. E. DePrince III, U. Bozkaya, R. A. King,
    F. A. Evangelista, J. M. Turney, T. D. Crawford, C. D. Sherrill,
    J. Chem. Phys. 152(18) 184108 (2020). https://doi.org/10.1063/5.0006002

                            Additional Code Authors
    E. T. Seidl, C. L. Janssen, E. F. Valeev, M. L. Leininger,
    J. F. Gonthier, R. M. Richard, H. R. McAlexander, M. Saitow, X. Wang,
    P. Verma, M. H. Lechner, A. Jiang, S. Behnle, A. G. Heide,
    M. F. Herbst, and D. L. Poole

             Previous Authors, Complete List of Code Contributors,
                       and Citations for Specific Modules
    https://github.com/psi4/psi4/blob/master/codemeta.json
    https://github.com/psi4/psi4/graphs/contributors
    http://psicode.org/psi4manual/master/introduction.html#citing-psifour

    -----------------------------------------------------------------------


    Psi4 started on: Friday, 06 June 2025 03:48PM

    Process ID: 2268144
    Host:       na21
    PSIDATADIR: /software-nas/eb2024/easybuild/software/rocky/8.9/amd/zen4/software/PSI4/1.9.1-foss-2023b/share/psi4
    Memory:     500.0 MiB
    Threads:    40
    
  ==> Input File <==

--------------------------------------------------------------------------
memory 100Gb

molecule{
1 2
He     0.00000000  0.00000000  -0.53710187
He     0.00000000  0.00000000  0.53710187
}

set reference rohf

energy("CCSD(T)/cc-pVTZ")
--------------------------------------------------------------------------

  Memory set to  93.132 GiB by Python driver.

Scratch directory: /scratch/pobleyef/204010/
   => Libint2 <=

    Primary   basis highest AM E, G, H:  5, 4, 3
    Auxiliary basis highest AM E, G, H:  6, 5, 4
    Onebody   basis highest AM E, G, H:  6, 5, 4
    Solid Harmonics ordering:            Gaussian

*** tstart() called on na21
*** at Fri Jun  6 15:48:33 2025

   => Loading Basis Set <=

    Name: CC-PVTZ
    Role: ORBITAL
    Keyword: BASIS
    atoms 1-2 entry HE         line    39 file /software-nas/eb2024/easybuild/software/rocky/8.9/amd/zen4/software/PSI4/1.9.1-foss-2023b/share/psi4/basis/cc-pvtz.gbs 


         ---------------------------------------------------------
                                   SCF
               by Justin Turney, Rob Parrish, Andy Simmonett
                          and Daniel G. A. Smith
                             ROHF Reference
                       40 Threads,  95367 MiB Core
         ---------------------------------------------------------

  ==> Geometry <==

    Molecular point group: d2h
    Full point group: D_inf_h

    Geometry (in Angstrom), charge = 1, multiplicity = 2:

       Center              X                  Y                   Z               Mass       
    ------------   -----------------  -----------------  -----------------  -----------------
         HE           0.000000000000     0.000000000000    -0.537101870000     4.002603254130
         HE           0.000000000000     0.000000000000     0.537101870000     4.002603254130

  Running in d2h symmetry.

  Rotational constants: A = ************  B =      7.29979  C =      7.29979 [cm^-1]
  Rotational constants: A = ************  B = 218842.33032  C = 218842.33032 [MHz]
  Nuclear repulsion =    1.970491038022266

  Charge       = 1
  Multiplicity = 2
  Electrons    = 3
  Nalpha       = 2
  Nbeta        = 1

  ==> Algorithm <==

  SCF Algorithm Type is PK.
  DIIS enabled.
  MOM disabled.
  Fractional occupation disabled.
  Guess Type is SAD.
  Energy threshold   = 1.00e-08
  Density threshold  = 1.00e-08
  Integral threshold = 1.00e-12

  ==> Primary Basis <==

  Basis Set: CC-PVTZ
    Blend: CC-PVTZ
    Number of shells: 12
    Number of basis functions: 28
    Number of Cartesian functions: 30
    Spherical Harmonics?: true
    Max angular momentum: 2

  ==> Integral Setup <==

  Using in-core PK algorithm.
   Calculation information:
      Number of atoms:                   2
      Number of AO shells:              12
      Number of primitives:             18
      Number of atomic orbitals:        30
      Number of basis functions:        28

      Integral cutoff                 1.00e-12
      Number of threads:                40

  Performing in-core PK
  Using 165242 doubles for integral storage.
  We computed 19650 shell quartets total.
  Whereas there are 3081 unique shell quartets.
   537.78 percent of shell quartets recomputed by reordering.

  ==> DiskJK: Disk-Based J/K Matrices <==

    J tasked:                  Yes
    K tasked:                  Yes
    wK tasked:                  No
    Memory [MiB]:            71525
    Schwarz Cutoff:          1E-12

    OpenMP threads:             40

  Minimum eigenvalue in the overlap matrix is 9.0469219093E-02.
  Reciprocal condition number of the overlap matrix is 3.4748935601E-02.
    Using symmetric orthogonalization.

  ==> Pre-Iterations <==

  SCF Guess: Superposition of Atomic Densities via on-the-fly atomic UHF (no occupation information).

   -------------------------
    Irrep   Nso     Nmo    
   -------------------------
     Ag         7       7 
     B1g        1       1 
     B2g        3       3 
     B3g        3       3 
     Au         1       1 
     B1u        7       7 
     B2u        3       3 
     B3u        3       3 
   -------------------------
    Total      28      28
   -------------------------

  ==> Iterations <==

                        Total Energy        Delta E     RMS |[F,P]|

   @ROHF iter SAD:    -5.88759139672007   -5.88759e+00   0.00000e+00 
   @ROHF iter   1:    -4.88412371580293    1.00347e+00   1.99679e-02 DIIS
   @ROHF iter   2:    -4.92135253176230   -3.72288e-02   1.60797e-03 DIIS
   @ROHF iter   3:    -4.92159065156241   -2.38120e-04   1.25573e-04 DIIS
   @ROHF iter   4:    -4.92159295423720   -2.30267e-06   1.70544e-05 DIIS
   @ROHF iter   5:    -4.92159299277305   -3.85359e-08   4.24270e-07 DIIS
   @ROHF iter   6:    -4.92159299278734   -1.42890e-11   1.48153e-08 DIIS
   @ROHF iter   7:    -4.92159299278736   -1.68754e-14   7.60438e-10 DIIS
  Energy and wave function converged.


  ==> Post-Iterations <==

    Orbital Energies [Eh]
    ---------------------

    Doubly Occupied:                                                      

       1Ag    -1.664980  

    Singly Occupied:                                                      

       1B1u   -1.047965  

    Virtual:                                                              

       2Ag     0.205286     2B1u    0.284941     1B2u    0.739984  
       1B3u    0.739984     3Ag     0.958076     1B2g    1.262652  
       1B3g    1.262652     3B1u    2.013083     4Ag     3.909272  
       4B1u    4.323829     2B3u    5.145434     2B2u    5.145434  
       5Ag     5.211961     1B1g    5.586566     6Ag     5.586566  
       1Au     5.858768     5B1u    5.858768     2B2g    6.536256  
       2B3g    6.536256     3B2u    7.137165     3B3u    7.137165  
       6B1u    7.299803     3B3g    7.441382     3B2g    7.441382  
       7Ag     7.861612     7B1u    9.000378  

    Final Occupation by Irrep:
             Ag   B1g   B2g   B3g    Au   B1u   B2u   B3u 
    DOCC [     1,    0,    0,    0,    0,    0,    0,    0 ]
    SOCC [     0,    0,    0,    0,    0,    1,    0,    0 ]
    NA   [     1,    0,    0,    0,    0,    1,    0,    0 ]
    NB   [     1,    0,    0,    0,    0,    0,    0,    0 ]

  @ROHF Final Energy:    -4.92159299278736

   => Energetics <=

    Nuclear Repulsion Energy =              1.9704910380222664
    One-Electron Energy =                  -8.9913741022610374
    Two-Electron Energy =                   2.0992900714514127
    Total Energy =                         -4.9215929927873585

Computation Completed


Properties will be evaluated at   0.000000,   0.000000,   0.000000 [a0]

Properties computed using the SCF density matrix


 Multipole Moments:

 ------------------------------------------------------------------------------------
     Multipole            Electronic (a.u.)      Nuclear  (a.u.)        Total (a.u.)
 ------------------------------------------------------------------------------------

 L = 1.  Multiply by 2.5417464519 to convert [e a0] to [Debye]
 Dipole X            :          0.0000000            0.0000000            0.0000000
 Dipole Y            :          0.0000000            0.0000000            0.0000000
 Dipole Z            :          0.0000000            0.0000000            0.0000000
 Magnitude           :                                                    0.0000000

 ------------------------------------------------------------------------------------

*** tstop() called on na21 at Fri Jun  6 15:48:33 2025
Module time:
	user time   =       2.64 seconds =       0.04 minutes
	system time =       0.09 seconds =       0.00 minutes
	total time  =          0 seconds =       0.00 minutes
Total time:
	user time   =       2.64 seconds =       0.04 minutes
	system time =       0.09 seconds =       0.00 minutes
	total time  =          0 seconds =       0.00 minutes
 MINTS: Wrapper to libmints.
   by Justin Turney

   Calculation information:
      Number of threads:                40
      Number of atoms:                   2
      Number of AO shells:              12
      Number of SO shells:               6
      Number of primitives:             18
      Number of atomic orbitals:        30
      Number of basis functions:        28

      Number of irreps:                  8
      Integral cutoff                 1.00e-12
      Number of functions per irrep: [   7    1    3    3    1    7    3    3 ]

 OEINTS: Overlap, kinetic, potential, dipole, and quadrupole integrals
         stored in file 35.

      Computing two-electron integrals...done
      Computed 10381 non-zero two-electron integrals.
        Stored in file 33.


*** tstart() called on na21
*** at Fri Jun  6 15:48:33 2025


	Wfn Parameters:
	--------------------
	Wavefunction         = CCSD_T
	Number of irreps     = 8
	Number of MOs        = 28
	Number of active MOs = 28
	AO-Basis             = NONE
	Semicanonical        = true
	Reference            = ROHF changed to UHF for semicanonical orbitals
	Print Level          = 1

	IRREP	# MOs	# FZDC	# DOCC	# SOCC	# VIRT	# FZVR
	-----	-----	------	------	------	------	------
	 Ag	   7	    0	    1	    0	    6	    0
	 B1g	   1	    0	    0	    0	    1	    0
	 B2g	   3	    0	    0	    0	    3	    0
	 B3g	   3	    0	    0	    0	    3	    0
	 Au	   1	    0	    0	    0	    1	    0
	 B1u	   7	    0	    0	    1	    6	    0
	 B2u	   3	    0	    0	    0	    3	    0
	 B3u	   3	    0	    0	    0	    3	    0
	Transforming integrals...
	IWL integrals will be deleted.
	(OO|OO)...
	Presorting SO-basis two-electron integrals.
	Sorting File: SO Ints (nn|nn) nbuckets = 1
	Constructing frozen core operators
	Starting AA/AB first half-transformation.
	Sorting AA/AB half-transformed integrals.
	Starting BB first half-transformation.
	Sorting BB half-transformed integrals.
	First half integral transformation complete.
	Starting AA second half-transformation.
	Starting AB second half-transformation.
	Starting BB second half-transformation.
	Two-electron integral transformation complete.
	(OO|OV)...
	Starting AA second half-transformation.
	Starting AB second half-transformation.
	Starting BB second half-transformation.
	Two-electron integral transformation complete.
	(OO|VV)...
	Starting AA second half-transformation.
	Starting AB second half-transformation.
	Starting BB second half-transformation.
	Two-electron integral transformation complete.
	(OV|OO)...
	Starting AA/AB first half-transformation.
	Sorting AA/AB half-transformed integrals.
	Starting BB first half-transformation.
	Sorting BB half-transformed integrals.
	First half integral transformation complete.
	Starting AA second half-transformation.
	Starting AB second half-transformation.
	Starting BB second half-transformation.
	Two-electron integral transformation complete.
	(OV|OV)...
	Starting AA second half-transformation.
	Starting AB second half-transformation.
	Starting BB second half-transformation.
	Two-electron integral transformation complete.
	(OV|VV)...
	Starting AA second half-transformation.
	Starting AB second half-transformation.
	Starting BB second half-transformation.
	Two-electron integral transformation complete.
	(VV|OO)...
	Starting AA/AB first half-transformation.
	Sorting AA/AB half-transformed integrals.
	Starting BB first half-transformation.
	Sorting BB half-transformed integrals.
	First half integral transformation complete.
	Starting AA second half-transformation.
	Starting AB second half-transformation.
	Starting BB second half-transformation.
	Two-electron integral transformation complete.
	(VV|OV)...
	Starting AA second half-transformation.
	Starting AB second half-transformation.
	Starting BB second half-transformation.
	Two-electron integral transformation complete.
	(VV|VV)...
	Starting AA second half-transformation.
	Starting AB second half-transformation.
	Starting BB second half-transformation.
	Two-electron integral transformation complete.
	Frozen core energy     =      0.00000000000000

	Size of irrep 0 of <AB|CD> integrals:      0.002 (MW) /      0.014 (MB)
	Size of irrep 1 of <AB|CD> integrals:      0.001 (MW) /      0.007 (MB)
	Size of irrep 2 of <AB|CD> integrals:      0.002 (MW) /      0.014 (MB)
	Size of irrep 3 of <AB|CD> integrals:      0.002 (MW) /      0.014 (MB)
	Size of irrep 4 of <AB|CD> integrals:      0.001 (MW) /      0.007 (MB)
	Size of irrep 5 of <AB|CD> integrals:      0.003 (MW) /      0.024 (MB)
	Size of irrep 6 of <AB|CD> integrals:      0.002 (MW) /      0.014 (MB)
	Size of irrep 7 of <AB|CD> integrals:      0.002 (MW) /      0.014 (MB)
	Total:                                     0.014 (MW) /      0.109 (MB)

	Size of irrep 0 of <ab|cd> integrals:      0.002 (MW) /      0.018 (MB)
	Size of irrep 1 of <ab|cd> integrals:      0.001 (MW) /      0.008 (MB)
	Size of irrep 2 of <ab|cd> integrals:      0.002 (MW) /      0.016 (MB)
	Size of irrep 3 of <ab|cd> integrals:      0.002 (MW) /      0.016 (MB)
	Size of irrep 4 of <ab|cd> integrals:      0.001 (MW) /      0.008 (MB)
	Size of irrep 5 of <ab|cd> integrals:      0.004 (MW) /      0.030 (MB)
	Size of irrep 6 of <ab|cd> integrals:      0.002 (MW) /      0.016 (MB)
	Size of irrep 7 of <ab|cd> integrals:      0.002 (MW) /      0.016 (MB)
	Total:                                     0.016 (MW) /      0.128 (MB)

	Size of irrep 0 of <Ab|Cd> integrals:      0.013 (MW) /      0.108 (MB)
	Size of irrep 1 of <Ab|Cd> integrals:      0.004 (MW) /      0.030 (MB)
	Size of irrep 2 of <Ab|Cd> integrals:      0.008 (MW) /      0.061 (MB)
	Size of irrep 3 of <Ab|Cd> integrals:      0.008 (MW) /      0.061 (MB)
	Size of irrep 4 of <Ab|Cd> integrals:      0.004 (MW) /      0.030 (MB)
	Size of irrep 5 of <Ab|Cd> integrals:      0.013 (MW) /      0.108 (MB)
	Size of irrep 6 of <Ab|Cd> integrals:      0.008 (MW) /      0.061 (MB)
	Size of irrep 7 of <Ab|Cd> integrals:      0.008 (MW) /      0.061 (MB)
	Total:                                     0.065 (MW) /      0.517 (MB)

	Size of irrep 0 of <IA|BC> integrals:      0.001 (MW) /      0.011 (MB)
	Size of irrep 1 of <IA|BC> integrals:      0.000 (MW) /      0.001 (MB)
	Size of irrep 2 of <IA|BC> integrals:      0.001 (MW) /      0.004 (MB)
	Size of irrep 3 of <IA|BC> integrals:      0.001 (MW) /      0.004 (MB)
	Size of irrep 4 of <IA|BC> integrals:      0.000 (MW) /      0.001 (MB)
	Size of irrep 5 of <IA|BC> integrals:      0.001 (MW) /      0.011 (MB)
	Size of irrep 6 of <IA|BC> integrals:      0.001 (MW) /      0.004 (MB)
	Size of irrep 7 of <IA|BC> integrals:      0.001 (MW) /      0.004 (MB)
	Total:                                     0.005 (MW) /      0.039 (MB)

	Size of irrep 0 of <ia|bc> integrals:      0.001 (MW) /      0.006 (MB)
	Size of irrep 1 of <ia|bc> integrals:      0.000 (MW) /      0.000 (MB)
	Size of irrep 2 of <ia|bc> integrals:      0.000 (MW) /      0.002 (MB)
	Size of irrep 3 of <ia|bc> integrals:      0.000 (MW) /      0.002 (MB)
	Size of irrep 4 of <ia|bc> integrals:      0.000 (MW) /      0.000 (MB)
	Size of irrep 5 of <ia|bc> integrals:      0.001 (MW) /      0.007 (MB)
	Size of irrep 6 of <ia|bc> integrals:      0.000 (MW) /      0.002 (MB)
	Size of irrep 7 of <ia|bc> integrals:      0.000 (MW) /      0.002 (MB)
	Total:                                     0.003 (MW) /      0.022 (MB)

	Size of irrep 0 of <Ia|Bc> integrals:      0.002 (MW) /      0.012 (MB)
	Size of irrep 1 of <Ia|Bc> integrals:      0.000 (MW) /      0.001 (MB)
	Size of irrep 2 of <Ia|Bc> integrals:      0.001 (MW) /      0.004 (MB)
	Size of irrep 3 of <Ia|Bc> integrals:      0.001 (MW) /      0.004 (MB)
	Size of irrep 4 of <Ia|Bc> integrals:      0.000 (MW) /      0.001 (MB)
	Size of irrep 5 of <Ia|Bc> integrals:      0.002 (MW) /      0.012 (MB)
	Size of irrep 6 of <Ia|Bc> integrals:      0.001 (MW) /      0.004 (MB)
	Size of irrep 7 of <Ia|Bc> integrals:      0.001 (MW) /      0.004 (MB)
	Total:                                     0.005 (MW) /      0.043 (MB)

	Size of irrep 0 of <iA|bC> integrals:      0.001 (MW) /      0.006 (MB)
	Size of irrep 1 of <iA|bC> integrals:      0.000 (MW) /      0.000 (MB)
	Size of irrep 2 of <iA|bC> integrals:      0.000 (MW) /      0.002 (MB)
	Size of irrep 3 of <iA|bC> integrals:      0.000 (MW) /      0.002 (MB)
	Size of irrep 4 of <iA|bC> integrals:      0.000 (MW) /      0.000 (MB)
	Size of irrep 5 of <iA|bC> integrals:      0.001 (MW) /      0.006 (MB)
	Size of irrep 6 of <iA|bC> integrals:      0.000 (MW) /      0.002 (MB)
	Size of irrep 7 of <iA|bC> integrals:      0.000 (MW) /      0.002 (MB)
	Total:                                     0.003 (MW) /      0.020 (MB)

	Size of irrep 0 of tIjAb amplitudes:       0.000 (MW) /      0.001 (MB)
	Size of irrep 1 of tIjAb amplitudes:       0.000 (MW) /      0.000 (MB)
	Size of irrep 2 of tIjAb amplitudes:       0.000 (MW) /      0.000 (MB)
	Size of irrep 3 of tIjAb amplitudes:       0.000 (MW) /      0.000 (MB)
	Size of irrep 4 of tIjAb amplitudes:       0.000 (MW) /      0.000 (MB)
	Size of irrep 5 of tIjAb amplitudes:       0.000 (MW) /      0.001 (MB)
	Size of irrep 6 of tIjAb amplitudes:       0.000 (MW) /      0.000 (MB)
	Size of irrep 7 of tIjAb amplitudes:       0.000 (MW) /      0.000 (MB)
	Total:                                     0.000 (MW) /      0.002 (MB)

	Nuclear Rep. energy          =      1.97049103802227
	SCF energy                   =     -4.92159299278736
	One-electron energy          =     -8.99137410064030
	Two-electron (AA) energy     =      0.47483570137665
	Two-electron (BB) energy     =      0.00000000000000
	Two-electron (AB) energy     =      1.62445436845402
	Two-electron energy          =      2.09929006983067
	Reference energy             =     -4.92159299278736

*** tstop() called on na21 at Fri Jun  6 15:48:34 2025
Module time:
	user time   =       0.10 seconds =       0.00 minutes
	system time =       0.03 seconds =       0.00 minutes
	total time  =          1 seconds =       0.02 minutes
Total time:
	user time   =       3.08 seconds =       0.05 minutes
	system time =       0.14 seconds =       0.00 minutes
	total time  =          1 seconds =       0.02 minutes
            **************************
            *                        *
            *        CCENERGY        *
            *                        *
            **************************

    Nuclear Rep. energy (wfn)     =    1.970491038022266
    SCF energy          (wfn)     =   -4.921592992787359
    Reference energy    (file100) =   -4.921592992787362

    Input parameters:
    -----------------
    Wave function   =     CCSD_T
    Reference wfn   =     ROHF changed to UHF for Semicanonical Orbitals
    Brueckner       =     No
    Memory (Mbytes) =     100000.0
    Maxiter         =     50
    R_Convergence   =     1.0e-07
    E_Convergence   =     1.0e-06
    Restart         =     Yes
    DIIS            =     Yes
    AO Basis        =     NONE
    ABCD            =     NEW
    Cache Level     =     2
    Cache Type      =     LRU
    Print Level     =     1
    Num. of threads =     40
    # Amps to Print =     10
    Print MP2 Amps? =     No
    Analyze T2 Amps =     No
    Print Pair Ener =     No
    Local CC        =     No
    SCS-MP2         =     False
    SCSN-MP2        =     False
    SCS-CCSD        =     False

MP2 correlation energy -0.0564816076063525
                Solving CC Amplitude Equations
                ------------------------------
  Iter             Energy              RMS        T1Diag      D1Diag    New D1Diag    D2Diag
  ----     ---------------------    ---------   ----------  ----------  ----------   --------
     0        -0.056631457190849    0.000e+00    0.030452    0.000000    0.000000    0.000000
     1        -0.064331727673689    2.111e-02    0.033315    0.000000    0.000000    0.000000
     2        -0.066673309487417    6.458e-03    0.033477    0.000000    0.000000    0.000000
     3        -0.066728074568064    1.324e-03    0.032920    0.000000    0.000000    0.000000
     4        -0.066734290825755    1.367e-04    0.032862    0.000000    0.000000    0.000000
     5        -0.066733480249581    3.225e-05    0.032851    0.000000    0.000000    0.000000
     6        -0.066733714063462    8.077e-06    0.032851    0.000000    0.000000    0.000000
     7        -0.066733665369540    1.320e-06    0.032851    0.000000    0.000000    0.000000
     8        -0.066733654439978    9.441e-08    0.032851    0.000000    0.000000    0.000000

    Iterations converged.


    Largest TIA Amplitudes:
              0   0         0.0238974412
              0   1         0.0230462324
              0   2         0.0171692383
              1  16         0.0038679119
              1  15         0.0023297407
              1  18         0.0013254179
              0   3        -0.0011106482
              1  14        -0.0010076529
              0   5        -0.0005571621
              1  19         0.0004684115

    Largest Tia Amplitudes:
              0   1         0.0299089650
              0   0        -0.0271659834
              0   2        -0.0134169759
              0   3         0.0016455465
              0   5         0.0005767927

    Largest TIJAB Amplitudes:
      1   0  14   0        -0.0060753972
      1   0  20  10         0.0052750258
      1   0  23   7         0.0052750258
      1   0  14   1         0.0051326707
      1   0  15   1        -0.0050525491
      1   0  16   0        -0.0021201208
      1   0  15   0         0.0019760877
      1   0  15   3         0.0018493318
      1   0  14   3        -0.0017782091
      1   0  18   1        -0.0017732182

    Largest TIjAb Amplitudes:
      1   0   1  14        -0.0511577690
      1   0   0  14        -0.0495885942
      0   0  14  14        -0.0392156299
      1   0   2  14        -0.0278499932
      0   0   1   1         0.0236652687
      0   0  20  21        -0.0220725229
      0   0  23  24        -0.0220725229
      1   0   0  15         0.0190657108
      1   0   7  24        -0.0182679929
      1   0  10  21        -0.0182679929

    SCF energy       (wfn)                    =   -4.921592992787359
    Reference energy (file100)                =   -4.921592992787362

    Opposite-spin MP2 correlation energy      =   -0.048059539554354
    Same-spin MP2 correlation energy          =   -0.000889281754836
    Singles MP2 correlation energy            =   -0.007532786297163
    MP2 correlation energy                    =   -0.056481607606353
      * MP2 total energy                      =   -4.978074600393715

    Opposite-spin CCSD correlation energy     =   -0.057689433080538
    Same-spin CCSD correlation energy         =   -0.000938951670650
    Singles CCSD correlation energy           =   -0.008105269688790
    CCSD correlation energy                   =   -0.066733654439978
      * CCSD total energy                     =   -4.988326647227340

            **************************
            *                        *
            *        CCTRIPLES       *
            *                        *
            **************************


    Wave function   =    CCSD_T
    Reference wfn   =    ROHF changed to UHF for Semicanonical Orbitals

    Nuclear Rep. energy (wfn)                =    1.970491038022266
    SCF energy          (wfn)                =   -4.921592992787359
    Reference energy    (file100)            =   -4.921592992787362
    CCSD energy         (file100)            =   -0.066733654439978
    Total CCSD energy   (file100)            =   -4.988326647227340

    Number of ijk index combinations:
    Spin Case AAA:                                   0
    Spin Case BBB:                                   0
    Spin Case AAB:                                   1
    Spin Case ABB:                                   0
    AAA (T) energy                             =    0.000000000000000
    BBB (T) energy                             =    0.000000000000000
    AAB (T) energy                             =   -0.000284870702934
    ABB (T) energy                             =    0.000000000000000
    (T) energy                                   =   -0.000284870702934
      * CCSD(T) total energy                     =   -4.988611517930273


    Psi4 stopped on: Friday, 06 June 2025 03:48PM
    Psi4 wall time for execution: 0:00:00.44

*** Psi4 exiting successfully. Buy a developer a beer!
