
    -----------------------------------------------------------------------
          Psi4: An Open-Source Ab Initio Electronic Structure Package
                               Psi4 1.9.1 release

                         Git: Rev {} zzzzzzz 


    D. G. A. Smith, L. A. Burns, A. C. Simmonett, R. M. Parrish,
    M. C. Schieber, R. Galvelis, P. Kraus, H. Kruse, R. Di Remigio,
    A. Alenaizan, A. M. James, S. Lehtola, J. P. Misiewicz, M. Scheurer,
    R. A. Shaw, J. B. Schriber, Y. Xie, Z. L. Glick, D. A. Sirianni,
    J. S. O'Brien, J. M. Waldrop, A. Kumar, E. G. Hohenstein,
    B. P. Pritchard, B. R. Brooks, H. F. Schaefer III, A. Yu. Sokolov,
    K. Patkowski, A. E. DePrince III, U. Bozkaya, R. A. King,
    F. A. Evangelista, J. M. Turney, T. D. Crawford, C. D. Sherrill,
    J. Chem. Phys. 152(18) 184108 (2020). https://doi.org/10.1063/5.0006002

                            Additional Code Authors
    E. T. Seidl, C. L. Janssen, E. F. Valeev, M. L. Leininger,
    J. F. Gonthier, R. M. Richard, H. R. McAlexander, M. Saitow, X. Wang,
    P. Verma, M. H. Lechner, A. Jiang, S. Behnle, A. G. Heide,
    M. F. Herbst, and D. L. Poole

             Previous Authors, Complete List of Code Contributors,
                       and Citations for Specific Modules
    https://github.com/psi4/psi4/blob/master/codemeta.json
    https://github.com/psi4/psi4/graphs/contributors
    http://psicode.org/psi4manual/master/introduction.html#citing-psifour

    -----------------------------------------------------------------------


    Psi4 started on: Friday, 06 June 2025 03:50PM

    Process ID: 2268927
    Host:       na21
    PSIDATADIR: /software-nas/eb2024/easybuild/software/rocky/8.9/amd/zen4/software/PSI4/1.9.1-foss-2023b/share/psi4
    Memory:     500.0 MiB
    Threads:    40
    
  ==> Input File <==

--------------------------------------------------------------------------
memory 100Gb

molecule{
0 1
O     0.000000  0.000000  0.441224
O     0.000000  1.082525  -0.220612
O     0.000000  -1.082525  -0.220612
}

set reference rhf

energy("CCSD(T)/cc-pVTZ")
--------------------------------------------------------------------------

  Memory set to  93.132 GiB by Python driver.

Scratch directory: /scratch/pobleyef/204029/
   => Libint2 <=

    Primary   basis highest AM E, G, H:  5, 4, 3
    Auxiliary basis highest AM E, G, H:  6, 5, 4
    Onebody   basis highest AM E, G, H:  6, 5, 4
    Solid Harmonics ordering:            Gaussian

*** tstart() called on na21
*** at Fri Jun  6 15:50:48 2025

   => Loading Basis Set <=

    Name: CC-PVTZ
    Role: ORBITAL
    Keyword: BASIS
    atoms 1-3 entry O          line   262 file /software-nas/eb2024/easybuild/software/rocky/8.9/amd/zen4/software/PSI4/1.9.1-foss-2023b/share/psi4/basis/cc-pvtz.gbs 


         ---------------------------------------------------------
                                   SCF
               by Justin Turney, Rob Parrish, Andy Simmonett
                          and Daniel G. A. Smith
                              RHF Reference
                       40 Threads,  95367 MiB Core
         ---------------------------------------------------------

  ==> Geometry <==

    Molecular point group: c2v
    Full point group: C2v

    Geometry (in Angstrom), charge = 0, multiplicity = 1:

       Center              X                  Y                   Z               Mass       
    ------------   -----------------  -----------------  -----------------  -----------------
         O            0.000000000000     0.000000000000     0.441224000000    15.994914619570
         O           -0.000000000000     1.082525000000    -0.220612000000    15.994914619570
         O            0.000000000000    -1.082525000000    -0.220612000000    15.994914619570

  Running in c2v symmetry.

  Rotational constants: A =      3.60915  B =      0.44969  C =      0.39986 [cm^-1]
  Rotational constants: A = 108199.62588  B =  13481.22658  C =  11987.61878 [MHz]
  Nuclear repulsion =   69.027030130513111

  Charge       = 0
  Multiplicity = 1
  Electrons    = 24
  Nalpha       = 12
  Nbeta        = 12

  ==> Algorithm <==

  SCF Algorithm Type is PK.
  DIIS enabled.
  MOM disabled.
  Fractional occupation disabled.
  Guess Type is SAD.
  Energy threshold   = 1.00e-08
  Density threshold  = 1.00e-08
  Integral threshold = 1.00e-12

  ==> Primary Basis <==

  Basis Set: CC-PVTZ
    Blend: CC-PVTZ
    Number of shells: 30
    Number of basis functions: 90
    Number of Cartesian functions: 105
    Spherical Harmonics?: true
    Max angular momentum: 3

  ==> Integral Setup <==

  Using in-core PK algorithm.
   Calculation information:
      Number of atoms:                   3
      Number of AO shells:              30
      Number of primitives:             78
      Number of atomic orbitals:       105
      Number of basis functions:        90

      Integral cutoff                 1.00e-12
      Number of threads:                40

  Performing in-core PK
  Using 16773120 doubles for integral storage.
  We computed 442273 shell quartets total.
  Whereas there are 108345 unique shell quartets.
   308.21 percent of shell quartets recomputed by reordering.

  ==> DiskJK: Disk-Based J/K Matrices <==

    J tasked:                  Yes
    K tasked:                  Yes
    wK tasked:                  No
    Memory [MiB]:            71525
    Schwarz Cutoff:          1E-12

    OpenMP threads:             40

  Minimum eigenvalue in the overlap matrix is 3.8403782386E-03.
  Reciprocal condition number of the overlap matrix is 9.7467634183E-04.
    Using symmetric orthogonalization.

  ==> Pre-Iterations <==

  SCF Guess: Superposition of Atomic Densities via on-the-fly atomic UHF (no occupation information).

   -------------------------
    Irrep   Nso     Nmo    
   -------------------------
     A1        33      33 
     A2        13      13 
     B1        17      17 
     B2        27      27 
   -------------------------
    Total      90      90
   -------------------------

  ==> Iterations <==

                        Total Energy        Delta E     RMS |[F,P]|

   @RHF iter SAD:  -223.58374735908652   -2.23584e+02   0.00000e+00 
   @RHF iter   1:  -224.17181392889759   -5.88067e-01   1.43752e-02 ADIIS/DIIS
   @RHF iter   2:  -224.20578006974148   -3.39661e-02   1.42673e-02 ADIIS/DIIS
   @RHF iter   3:  -224.33954723177123   -1.33767e-01   1.05952e-03 ADIIS/DIIS
   @RHF iter   4:  -224.34117737063812   -1.63014e-03   3.71422e-04 ADIIS/DIIS
   @RHF iter   5:  -224.34152718099247   -3.49810e-04   1.52727e-04 ADIIS/DIIS
   @RHF iter   6:  -224.34160549274836   -7.83118e-05   6.73660e-05 DIIS
   @RHF iter   7:  -224.34162752215573   -2.20294e-05   2.57060e-05 DIIS
   @RHF iter   8:  -224.34163049422142   -2.97207e-06   6.70476e-06 DIIS
   @RHF iter   9:  -224.34163058339931   -8.91779e-08   6.98676e-07 DIIS
   @RHF iter  10:  -224.34163058458094   -1.18163e-09   1.42039e-07 DIIS
   @RHF iter  11:  -224.34163058463562   -5.46834e-11   4.82888e-08 DIIS
   @RHF iter  12:  -224.34163058464401   -8.38440e-12   1.19293e-08 DIIS
   @RHF iter  13:  -224.34163058464506   -1.05160e-12   2.34930e-09 DIIS
  Energy and wave function converged.


  ==> Post-Iterations <==

    Orbital Energies [Eh]
    ---------------------

    Doubly Occupied:                                                      

       1A1   -20.918830     1B2   -20.704432     2A1   -20.704369  
       3A1    -1.753920     2B2    -1.432684     4A1    -1.090203  
       5A1    -0.832280     3B2    -0.798572     1B1    -0.782612  
       4B2    -0.561459     6A1    -0.548895     1A2    -0.485415  

    Virtual:                                                              

       2B1    -0.039038     7A1     0.296257     5B2     0.377119  
       8A1     0.634701     3B1     0.683703     6B2     0.692909  
       9A1     0.729551     7B2     0.751943    10A1     0.770880  
       2A2     0.807462     4B1     0.835821     8B2     0.880765  
      11A1     0.901258    12A1     1.316410     5B1     1.395454  
       9B2     1.399917     3A2     1.416454    13A1     1.467668  
      10B2     1.722017     4A2     1.748932     6B1     1.779206  
      14A1     1.798614    11B2     2.080514    15A1     2.234233  
       7B1     2.335777    16A1     2.375736    12B2     2.407643  
       5A2     2.494943    13B2     2.516970    17A1     2.722463  
       8B1     3.801798    18A1     3.924499    14B2     3.968351  
       6A2     4.061080    15B2     4.080891     9B1     4.166136  
      19A1     4.226788    20A1     4.870165    10B1     4.886505  
       7A2     4.896390    16B2     4.931500    17B2     4.987573  
      21A1     5.064409    11B1     5.083979    18B2     5.196564  
      22A1     5.282510     8A2     5.498052    19B2     5.499931  
      12B1     5.510408    23A1     5.514131     9A2     5.596354  
      24A1     5.801567    20B2     5.836284    13B1     6.063549  
      25A1     6.316053    26A1     6.417193    14B1     6.547554  
      21B2     6.580234    10A2     6.596623    27A1     6.606784  
      22B2     6.689058    11A2     6.715737    15B1     6.752372  
      12A2     6.828324    16B1     6.828607    28A1     6.840927  
      29A1     6.977011    23B2     6.984874    24B2     7.111914  
      30A1     7.173511    17B1     7.406884    13A2     7.523802  
      31A1     7.616134    25B2     7.682925    26B2     8.124139  
      32A1     8.215047    27B2    10.711545    33A1    12.583082  

    Final Occupation by Irrep:
             A1    A2    B1    B2 
    DOCC [     6,    1,    1,    4 ]
    NA   [     6,    1,    1,    4 ]
    NB   [     6,    1,    1,    4 ]

  @RHF Final Energy:  -224.34163058464506

   => Energetics <=

    Nuclear Repulsion Energy =             69.0270301305131113
    One-Electron Energy =                -445.5099835523668048
    Two-Electron Energy =                 152.1413228372086621
    Total Energy =                       -224.3416305846450598

Computation Completed


Properties will be evaluated at   0.000000,   0.000000,   0.000000 [a0]

Properties computed using the SCF density matrix


 Multipole Moments:

 ------------------------------------------------------------------------------------
     Multipole            Electronic (a.u.)      Nuclear  (a.u.)        Total (a.u.)
 ------------------------------------------------------------------------------------

 L = 1.  Multiply by 2.5417464519 to convert [e a0] to [Debye]
 Dipole X            :          0.0000000            0.0000000            0.0000000
 Dipole Y            :          0.0000000            0.0000000            0.0000000
 Dipole Z            :          0.3223182            0.0000000            0.3223182
 Magnitude           :                                                    0.3223182

 ------------------------------------------------------------------------------------

*** tstop() called on na21 at Fri Jun  6 15:50:50 2025
Module time:
	user time   =      14.79 seconds =       0.25 minutes
	system time =       0.45 seconds =       0.01 minutes
	total time  =          2 seconds =       0.03 minutes
Total time:
	user time   =      14.79 seconds =       0.25 minutes
	system time =       0.45 seconds =       0.01 minutes
	total time  =          2 seconds =       0.03 minutes
 MINTS: Wrapper to libmints.
   by Justin Turney

   Calculation information:
      Number of threads:                40
      Number of atoms:                   3
      Number of AO shells:              30
      Number of SO shells:              20
      Number of primitives:             78
      Number of atomic orbitals:       105
      Number of basis functions:        90

      Number of irreps:                  4
      Integral cutoff                 1.00e-12
      Number of functions per irrep: [  33   13   17   27 ]

 OEINTS: Overlap, kinetic, potential, dipole, and quadrupole integrals
         stored in file 35.

      Computing two-electron integrals...done
      Computed 1904403 non-zero two-electron integrals.
        Stored in file 33.


*** tstart() called on na21
*** at Fri Jun  6 15:50:50 2025


	Wfn Parameters:
	--------------------
	Wavefunction         = CCSD_T
	Number of irreps     = 4
	Number of MOs        = 90
	Number of active MOs = 90
	AO-Basis             = NONE
	Semicanonical        = false
	Reference            = RHF
	Print Level          = 1

	IRREP	# MOs	# FZDC	# DOCC	# SOCC	# VIRT	# FZVR
	-----	-----	------	------	------	------	------
	 A1	   33	    0	    6	    0	    27	    0
	 A2	   13	    0	    1	    0	    12	    0
	 B1	   17	    0	    1	    0	    16	    0
	 B2	   27	    0	    4	    0	    23	    0
	Transforming integrals...
	IWL integrals will be deleted.
	(OO|OO)...
	Presorting SO-basis two-electron integrals.
	Sorting File: SO Ints (nn|nn) nbuckets = 1
	Constructing frozen core operators
	Starting first half-transformation.
	Sorting half-transformed integrals.
	First half integral transformation complete.
	Starting second half-transformation.
	Two-electron integral transformation complete.
	(OO|OV)...
	Starting second half-transformation.
	Two-electron integral transformation complete.
	(OO|VV)...
	Starting second half-transformation.
	Two-electron integral transformation complete.
	(OV|OO)...
	Starting first half-transformation.
	Sorting half-transformed integrals.
	First half integral transformation complete.
	Starting second half-transformation.
	Two-electron integral transformation complete.
	(OV|OV)...
	Starting second half-transformation.
	Two-electron integral transformation complete.
	(OV|VV)...
	Starting second half-transformation.
	Two-electron integral transformation complete.
	(VV|OO)...
	Starting first half-transformation.
	Sorting half-transformed integrals.
	First half integral transformation complete.
	Starting second half-transformation.
	Two-electron integral transformation complete.
	(VV|OV)...
	Starting second half-transformation.
	Two-electron integral transformation complete.
	(VV|VV)...
	Starting second half-transformation.
	Two-electron integral transformation complete.
	Frozen core energy     =      0.00000000000000

	Size of irrep 0 of <ab|cd> integrals:      2.749 (MW) /     21.992 (MB)
	Size of irrep 1 of <ab|cd> integrals:      1.915 (MW) /     15.324 (MB)
	Size of irrep 2 of <ab|cd> integrals:      2.005 (MW) /     16.040 (MB)
	Size of irrep 3 of <ab|cd> integrals:      2.644 (MW) /     21.151 (MB)
	Total:                                     9.313 (MW) /     74.507 (MB)

	Size of irrep 0 of <ia|bc> integrals:      0.468 (MW) /      3.740 (MB)
	Size of irrep 1 of <ia|bc> integrals:      0.257 (MW) /      2.059 (MB)
	Size of irrep 2 of <ia|bc> integrals:      0.275 (MW) /      2.198 (MB)
	Size of irrep 3 of <ia|bc> integrals:      0.446 (MW) /      3.564 (MB)
	Total:                                     1.445 (MW) /     11.562 (MB)

	Size of irrep 0 of tijab amplitudes:       0.090 (MW) /      0.716 (MB)
	Size of irrep 1 of tijab amplitudes:       0.028 (MW) /      0.221 (MB)
	Size of irrep 2 of tijab amplitudes:       0.028 (MW) /      0.227 (MB)
	Size of irrep 3 of tijab amplitudes:       0.081 (MW) /      0.650 (MB)
	Total:                                     0.227 (MW) /      1.815 (MB)

	Nuclear Rep. energy          =     69.02703013051311
	SCF energy                   =   -224.34163058464506
	One-electron energy          =   -445.50998371075650
	Two-electron energy          =    152.14132299559810
	Reference energy             =   -224.34163058464529

*** tstop() called on na21 at Fri Jun  6 15:50:51 2025
Module time:
	user time   =       2.09 seconds =       0.03 minutes
	system time =       0.32 seconds =       0.01 minutes
	total time  =          1 seconds =       0.02 minutes
Total time:
	user time   =      17.60 seconds =       0.29 minutes
	system time =       0.86 seconds =       0.01 minutes
	total time  =          3 seconds =       0.05 minutes
            **************************
            *                        *
            *        CCENERGY        *
            *                        *
            **************************

    Nuclear Rep. energy (wfn)     =   69.027030130513111
    SCF energy          (wfn)     = -224.341630584645060
    Reference energy    (file100) = -224.341630584645287

    Input parameters:
    -----------------
    Wave function   =     CCSD_T
    Reference wfn   =     RHF
    Brueckner       =     No
    Memory (Mbytes) =     100000.0
    Maxiter         =     50
    R_Convergence   =     1.0e-07
    E_Convergence   =     1.0e-06
    Restart         =     Yes
    DIIS            =     Yes
    AO Basis        =     NONE
    ABCD            =     NEW
    Cache Level     =     2
    Cache Type      =     LOW
    Print Level     =     1
    Num. of threads =     40
    # Amps to Print =     10
    Print MP2 Amps? =     No
    Analyze T2 Amps =     No
    Print Pair Ener =     No
    Local CC        =     No
    SCS-MP2         =     False
    SCSN-MP2        =     False
    SCS-CCSD        =     False

MP2 correlation energy -0.8144315499493971
                Solving CC Amplitude Equations
                ------------------------------
  Iter             Energy              RMS        T1Diag      D1Diag    New D1Diag    D2Diag
  ----     ---------------------    ---------   ----------  ----------  ----------   --------
     0        -0.814431549949397    0.000e+00    0.000000    0.000000    0.000000    0.264470
     1        -0.732718585744811    1.287e-01    0.017466    0.055872    0.055872    0.206407
     2        -0.769649397997370    7.577e-02    0.015550    0.049039    0.049039    0.241369
     3        -0.779782622132047    2.218e-02    0.019781    0.064359    0.064359    0.255572
     4        -0.780707529174818    9.806e-03    0.021739    0.071185    0.071185    0.262299
     5        -0.780962731916093    4.309e-03    0.023023    0.075729    0.075729    0.265911
     6        -0.781025581011742    1.090e-03    0.023213    0.076619    0.076619    0.266088
     7        -0.780963951391709    4.768e-04    0.023230    0.076582    0.076582    0.265986
     8        -0.780953323415963    1.586e-04    0.023256    0.076675    0.076675    0.265980
     9        -0.780957361378970    6.779e-05    0.023260    0.076666    0.076666    0.265967
    10        -0.780951867380434    3.103e-05    0.023262    0.076661    0.076661    0.265959
    11        -0.780952702240696    9.421e-06    0.023263    0.076658    0.076658    0.265958
    12        -0.780953060096763    2.903e-06    0.023263    0.076657    0.076657    0.265958
    13        -0.780953156504076    1.019e-06    0.023263    0.076656    0.076656    0.265958
    14        -0.780953171580492    2.904e-07    0.023263    0.076656    0.076656    0.265958
    15        -0.780953156813264    1.247e-07    0.023263    0.076656    0.076656    0.265958
    16        -0.780953161929917    5.508e-08    0.023263    0.076656    0.076656    0.265958

    Iterations converged.


    Largest TIA Amplitudes:
              7  39         0.0741083630
              5   0         0.0493970944
             11  55        -0.0378495624
              6  27        -0.0292029995
              5   1         0.0167921773
              5   2         0.0149152615
             11  57        -0.0145623543
              3   0        -0.0133205419
              5   3        -0.0125419150
              7  40         0.0122008120

    Largest TIjAb Amplitudes:
      6   6  39  39        -0.1914024018
      7   7  39  39        -0.0727747494
      6   6  39  40         0.0430845994
      6   6  40  39         0.0430845994
      5   6  55  39        -0.0346441495
      6   5  39  55        -0.0346441495
      7  10  39  55        -0.0328683366
     10   7  55  39        -0.0328683366
     10  10  55  55        -0.0326527829
      6  11  39   0         0.0304385789

    SCF energy       (wfn)                    = -224.341630584645060
    Reference energy (file100)                = -224.341630584645287

    Opposite-spin MP2 correlation energy      =   -0.598644890937793
    Same-spin MP2 correlation energy          =   -0.215786659011604
    Singles MP2 correlation energy            =   -0.000000000000000
    MP2 correlation energy                    =   -0.814431549949397
      * MP2 total energy                      = -225.156062134594691

    Opposite-spin CCSD correlation energy     =   -0.603622079203913
    Same-spin CCSD correlation energy         =   -0.177331082726004
    Singles CCSD correlation energy           =    0.000000000000000
    CCSD correlation energy                   =   -0.780953161929917
      * CCSD total energy                     = -225.122583746575202

            **************************
            *                        *
            *        CCTRIPLES       *
            *                        *
            **************************


    Wave function   =    CCSD_T
    Reference wfn   =      RHF

    Nuclear Rep. energy (wfn)                =   69.027030130513111
    SCF energy          (wfn)                = -224.341630584645060
    Reference energy    (file100)            = -224.341630584645287
    CCSD energy         (file100)            =   -0.780953161929917
    Total CCSD energy   (file100)            = -225.122583746575202

    Number of ijk index combinations:              364
    Memory available in words               :     12500000000
    Approx. words needed per explicit thread:           78732
    Number of threads for explicit ijk threading:   40

    (T) energy                                =   -0.047399499045920
      * CCSD(T) total energy                  = -225.169983245621125


    Psi4 stopped on: Friday, 06 June 2025 03:50PM
    Psi4 wall time for execution: 0:00:05.69

*** Psi4 exiting successfully. Buy a developer a beer!
