
    -----------------------------------------------------------------------
          Psi4: An Open-Source Ab Initio Electronic Structure Package
                               Psi4 1.9.1 release

                         Git: Rev {} zzzzzzz 


    D. G. A. Smith, L. A. Burns, A. C. Simmonett, R. M. Parrish,
    M. C. Schieber, R. Galvelis, P. Kraus, H. Kruse, R. Di Remigio,
    A. Alenaizan, A. M. James, S. Lehtola, J. P. Misiewicz, M. Scheurer,
    R. A. Shaw, J. B. Schriber, Y. Xie, Z. L. Glick, D. A. Sirianni,
    J. S. O'Brien, J. M. Waldrop, A. Kumar, E. G. Hohenstein,
    B. P. Pritchard, B. R. Brooks, H. F. Schaefer III, A. Yu. Sokolov,
    K. Patkowski, A. E. DePrince III, U. Bozkaya, R. A. King,
    F. A. Evangelista, J. M. Turney, T. D. Crawford, C. D. Sherrill,
    J. Chem. Phys. 152(18) 184108 (2020). https://doi.org/10.1063/5.0006002

                            Additional Code Authors
    E. T. Seidl, C. L. Janssen, E. F. Valeev, M. L. Leininger,
    J. F. Gonthier, R. M. Richard, H. R. McAlexander, M. Saitow, X. Wang,
    P. Verma, M. H. Lechner, A. Jiang, S. Behnle, A. G. Heide,
    M. F. Herbst, and D. L. Poole

             Previous Authors, Complete List of Code Contributors,
                       and Citations for Specific Modules
    https://github.com/psi4/psi4/blob/master/codemeta.json
    https://github.com/psi4/psi4/graphs/contributors
    http://psicode.org/psi4manual/master/introduction.html#citing-psifour

    -----------------------------------------------------------------------


    Psi4 started on: Friday, 06 June 2025 03:50PM

    Process ID: 596967
    Host:       na14
    PSIDATADIR: /software-nas/eb2024/easybuild/software/rocky/8.9/amd/zen4/software/PSI4/1.9.1-foss-2023b/share/psi4
    Memory:     500.0 MiB
    Threads:    40
    
  ==> Input File <==

--------------------------------------------------------------------------
memory 100Gb

molecule{
0 1
C     0.000000  0.000000  0.620000
C     0.000000  0.000000  -0.620000
}

set reference rhf

energy("CCSD(T)/cc-pVTZ")
--------------------------------------------------------------------------

  Memory set to  93.132 GiB by Python driver.

Scratch directory: /scratch/pobleyef/204025/
   => Libint2 <=

    Primary   basis highest AM E, G, H:  5, 4, 3
    Auxiliary basis highest AM E, G, H:  6, 5, 4
    Onebody   basis highest AM E, G, H:  6, 5, 4
    Solid Harmonics ordering:            Gaussian

*** tstart() called on na14
*** at Fri Jun  6 15:50:11 2025

   => Loading Basis Set <=

    Name: CC-PVTZ
    Role: ORBITAL
    Keyword: BASIS
    atoms 1-2 entry C          line   186 file /software-nas/eb2024/easybuild/software/rocky/8.9/amd/zen4/software/PSI4/1.9.1-foss-2023b/share/psi4/basis/cc-pvtz.gbs 


         ---------------------------------------------------------
                                   SCF
               by Justin Turney, Rob Parrish, Andy Simmonett
                          and Daniel G. A. Smith
                              RHF Reference
                       40 Threads,  95367 MiB Core
         ---------------------------------------------------------

  ==> Geometry <==

    Molecular point group: d2h
    Full point group: D_inf_h

    Geometry (in Angstrom), charge = 0, multiplicity = 1:

       Center              X                  Y                   Z               Mass       
    ------------   -----------------  -----------------  -----------------  -----------------
         C            0.000000000000     0.000000000000     0.620000000000    12.000000000000
         C            0.000000000000     0.000000000000    -0.620000000000    12.000000000000

  Running in d2h symmetry.

  Rotational constants: A = ************  B =      1.82727  C =      1.82727 [cm^-1]
  Rotational constants: A = ************  B =  54780.06946  C =  54780.06946 [MHz]
  Nuclear repulsion =   15.363209342032258

  Charge       = 0
  Multiplicity = 1
  Electrons    = 12
  Nalpha       = 6
  Nbeta        = 6

  ==> Algorithm <==

  SCF Algorithm Type is PK.
  DIIS enabled.
  MOM disabled.
  Fractional occupation disabled.
  Guess Type is SAD.
  Energy threshold   = 1.00e-08
  Density threshold  = 1.00e-08
  Integral threshold = 1.00e-12

  ==> Primary Basis <==

  Basis Set: CC-PVTZ
    Blend: CC-PVTZ
    Number of shells: 20
    Number of basis functions: 60
    Number of Cartesian functions: 70
    Spherical Harmonics?: true
    Max angular momentum: 3

  ==> Integral Setup <==

  Using in-core PK algorithm.
   Calculation information:
      Number of atoms:                   2
      Number of AO shells:              20
      Number of primitives:             52
      Number of atomic orbitals:        70
      Number of basis functions:        60

      Integral cutoff                 1.00e-12
      Number of threads:                40

  Performing in-core PK
  Using 3350730 doubles for integral storage.
  We computed 123469 shell quartets total.
  Whereas there are 22155 unique shell quartets.
   457.30 percent of shell quartets recomputed by reordering.

  ==> DiskJK: Disk-Based J/K Matrices <==

    J tasked:                  Yes
    K tasked:                  Yes
    wK tasked:                  No
    Memory [MiB]:            71525
    Schwarz Cutoff:          1E-12

    OpenMP threads:             40

  Minimum eigenvalue in the overlap matrix is 1.8807789061E-03.
  Reciprocal condition number of the overlap matrix is 4.8707141253E-04.
    Using symmetric orthogonalization.

  ==> Pre-Iterations <==

  SCF Guess: Superposition of Atomic Densities via on-the-fly atomic UHF (no occupation information).

   -------------------------
    Irrep   Nso     Nmo    
   -------------------------
     Ag        13      13 
     B1g        3       3 
     B2g        7       7 
     B3g        7       7 
     Au         3       3 
     B1u       13      13 
     B2u        7       7 
     B3u        7       7 
   -------------------------
    Total      60      60
   -------------------------

  ==> Iterations <==

                        Total Energy        Delta E     RMS |[F,P]|

   @RHF iter SAD:   -74.49797333213816   -7.44980e+01   0.00000e+00 
   @RHF iter   1:   -75.37317053210285   -8.75197e-01   8.45334e-03 DIIS/ADIIS
   @RHF iter   2:   -75.39777752531234   -2.46070e-02   2.74409e-03 DIIS/ADIIS
   @RHF iter   3:   -75.40069580073563   -2.91828e-03   9.50472e-04 DIIS/ADIIS
   @RHF iter   4:   -75.40143401822364   -7.38217e-04   1.80927e-04 DIIS/ADIIS
   @RHF iter   5:   -75.40144905904256   -1.50408e-05   1.79315e-05 DIIS
   @RHF iter   6:   -75.40144922180149   -1.62759e-07   1.29253e-06 DIIS
   @RHF iter   7:   -75.40144922260662   -8.05130e-10   1.54669e-07 DIIS
   @RHF iter   8:   -75.40144922261868   -1.20650e-11   1.44871e-08 DIIS
   @RHF iter   9:   -75.40144922261884   -1.56319e-13   2.06856e-09 DIIS
  Energy and wave function converged.


  ==> Post-Iterations <==

    Orbital Energies [Eh]
    ---------------------

    Doubly Occupied:                                                      

       1Ag   -11.359035     1B1u  -11.356696     2Ag    -1.061601  
       2B1u   -0.516046     1B2u   -0.457677     1B3u   -0.457677  

    Virtual:                                                              

       3Ag    -0.111521     1B2g    0.152845     1B3g    0.152845  
       3B1u    0.272796     4Ag     0.404992     2B2u    0.414744  
       2B3u    0.414744     5Ag     0.513702     2B2g    0.541543  
       2B3g    0.541543     4B1u    0.712287     1B1g    0.751295  
       6Ag     0.751295     5B1u    0.854440     3B2u    0.970292  
       3B3u    0.970292     1Au     1.073191     6B1u    1.073191  
       3B2g    1.333445     3B3g    1.333445     7Ag     1.343436  
       7B1u    1.694922     4B3u    2.258491     4B2u    2.258491  
       8Ag     2.376432     4B2g    2.545042     4B3g    2.545042  
       8B1u    2.637598     2B1g    2.724640     9Ag     2.724640  
       5B3u    2.795198     5B2u    2.795198     6B2u    2.814451  
       6B3u    2.814451    10Ag     3.055444     5B2g    3.189246  
       5B3g    3.189246     3B1g    3.264823    11Ag     3.264823  
       6B2g    3.278004     6B3g    3.278004     9B1u    3.349562  
       2Au     3.349562    10B1u    3.594856     7B3u    3.782252  
       7B2u    3.782252     3Au     3.839008    11B1u    3.839008  
      12Ag     3.959713    12B1u    4.392495     7B2g    4.974964  
       7B3g    4.974964    13Ag     5.271799    13B1u   13.309844  

    Final Occupation by Irrep:
             Ag   B1g   B2g   B3g    Au   B1u   B2u   B3u 
    DOCC [     2,    0,    0,    0,    0,    2,    1,    1 ]
    NA   [     2,    0,    0,    0,    0,    2,    1,    1 ]
    NB   [     2,    0,    0,    0,    0,    2,    1,    1 ]

  @RHF Final Energy:   -75.40144922261884

   => Energetics <=

    Nuclear Repulsion Energy =             15.3632093420322580
    One-Electron Energy =                -131.1118517967270805
    Two-Electron Energy =                  40.3471932320759947
    Total Energy =                        -75.4014492226188224

Computation Completed


Properties will be evaluated at   0.000000,   0.000000,   0.000000 [a0]

Properties computed using the SCF density matrix


 Multipole Moments:

 ------------------------------------------------------------------------------------
     Multipole            Electronic (a.u.)      Nuclear  (a.u.)        Total (a.u.)
 ------------------------------------------------------------------------------------

 L = 1.  Multiply by 2.5417464519 to convert [e a0] to [Debye]
 Dipole X            :          0.0000000            0.0000000            0.0000000
 Dipole Y            :          0.0000000            0.0000000            0.0000000
 Dipole Z            :          0.0000000           -0.0000000           -0.0000000
 Magnitude           :                                                    0.0000000

 ------------------------------------------------------------------------------------

*** tstop() called on na14 at Fri Jun  6 15:50:12 2025
Module time:
	user time   =      34.64 seconds =       0.58 minutes
	system time =       0.45 seconds =       0.01 minutes
	total time  =          1 seconds =       0.02 minutes
Total time:
	user time   =      34.64 seconds =       0.58 minutes
	system time =       0.45 seconds =       0.01 minutes
	total time  =          1 seconds =       0.02 minutes
 MINTS: Wrapper to libmints.
   by Justin Turney

   Calculation information:
      Number of threads:                40
      Number of atoms:                   2
      Number of AO shells:              20
      Number of SO shells:              10
      Number of primitives:             52
      Number of atomic orbitals:        70
      Number of basis functions:        60

      Number of irreps:                  8
      Integral cutoff                 1.00e-12
      Number of functions per irrep: [  13    3    7    7    3   13    7    7 ]

 OEINTS: Overlap, kinetic, potential, dipole, and quadrupole integrals
         stored in file 35.

      Computing two-electron integrals...done
      Computed 180477 non-zero two-electron integrals.
        Stored in file 33.


*** tstart() called on na14
*** at Fri Jun  6 15:50:13 2025


	Wfn Parameters:
	--------------------
	Wavefunction         = CCSD_T
	Number of irreps     = 8
	Number of MOs        = 60
	Number of active MOs = 60
	AO-Basis             = NONE
	Semicanonical        = false
	Reference            = RHF
	Print Level          = 1

	IRREP	# MOs	# FZDC	# DOCC	# SOCC	# VIRT	# FZVR
	-----	-----	------	------	------	------	------
	 Ag	   13	    0	    2	    0	    11	    0
	 B1g	   3	    0	    0	    0	    3	    0
	 B2g	   7	    0	    0	    0	    7	    0
	 B3g	   7	    0	    0	    0	    7	    0
	 Au	   3	    0	    0	    0	    3	    0
	 B1u	   13	    0	    2	    0	    11	    0
	 B2u	   7	    0	    1	    0	    6	    0
	 B3u	   7	    0	    1	    0	    6	    0
	Transforming integrals...
	IWL integrals will be deleted.
	(OO|OO)...
	Presorting SO-basis two-electron integrals.
	Sorting File: SO Ints (nn|nn) nbuckets = 1
	Constructing frozen core operators
	Starting first half-transformation.
	Sorting half-transformed integrals.
	First half integral transformation complete.
	Starting second half-transformation.
	Two-electron integral transformation complete.
	(OO|OV)...
	Starting second half-transformation.
	Two-electron integral transformation complete.
	(OO|VV)...
	Starting second half-transformation.
	Two-electron integral transformation complete.
	(OV|OO)...
	Starting first half-transformation.
	Sorting half-transformed integrals.
	First half integral transformation complete.
	Starting second half-transformation.
	Two-electron integral transformation complete.
	(OV|OV)...
	Starting second half-transformation.
	Two-electron integral transformation complete.
	(OV|VV)...
	Starting second half-transformation.
	Two-electron integral transformation complete.
	(VV|OO)...
	Starting first half-transformation.
	Sorting half-transformed integrals.
	First half integral transformation complete.
	Starting second half-transformation.
	Two-electron integral transformation complete.
	(VV|OV)...
	Starting second half-transformation.
	Two-electron integral transformation complete.
	(VV|VV)...
	Starting second half-transformation.
	Two-electron integral transformation complete.
	Frozen core energy     =      0.00000000000000

	Size of irrep 0 of <ab|cd> integrals:      0.185 (MW) /      1.479 (MB)
	Size of irrep 1 of <ab|cd> integrals:      0.091 (MW) /      0.730 (MB)
	Size of irrep 2 of <ab|cd> integrals:      0.132 (MW) /      1.060 (MB)
	Size of irrep 3 of <ab|cd> integrals:      0.132 (MW) /      1.060 (MB)
	Size of irrep 4 of <ab|cd> integrals:      0.090 (MW) /      0.720 (MB)
	Size of irrep 5 of <ab|cd> integrals:      0.183 (MW) /      1.465 (MB)
	Size of irrep 6 of <ab|cd> integrals:      0.132 (MW) /      1.060 (MB)
	Size of irrep 7 of <ab|cd> integrals:      0.132 (MW) /      1.060 (MB)
	Total:                                     1.079 (MW) /      8.634 (MB)

	Size of irrep 0 of <ia|bc> integrals:      0.024 (MW) /      0.193 (MB)
	Size of irrep 1 of <ia|bc> integrals:      0.007 (MW) /      0.058 (MB)
	Size of irrep 2 of <ia|bc> integrals:      0.015 (MW) /      0.116 (MB)
	Size of irrep 3 of <ia|bc> integrals:      0.015 (MW) /      0.116 (MB)
	Size of irrep 4 of <ia|bc> integrals:      0.008 (MW) /      0.062 (MB)
	Size of irrep 5 of <ia|bc> integrals:      0.025 (MW) /      0.199 (MB)
	Size of irrep 6 of <ia|bc> integrals:      0.015 (MW) /      0.116 (MB)
	Size of irrep 7 of <ia|bc> integrals:      0.015 (MW) /      0.116 (MB)
	Total:                                     0.122 (MW) /      0.978 (MB)

	Size of irrep 0 of tijab amplitudes:       0.004 (MW) /      0.034 (MB)
	Size of irrep 1 of tijab amplitudes:       0.001 (MW) /      0.005 (MB)
	Size of irrep 2 of tijab amplitudes:       0.001 (MW) /      0.012 (MB)
	Size of irrep 3 of tijab amplitudes:       0.001 (MW) /      0.012 (MB)
	Size of irrep 4 of tijab amplitudes:       0.000 (MW) /      0.000 (MB)
	Size of irrep 5 of tijab amplitudes:       0.003 (MW) /      0.027 (MB)
	Size of irrep 6 of tijab amplitudes:       0.001 (MW) /      0.012 (MB)
	Size of irrep 7 of tijab amplitudes:       0.001 (MW) /      0.012 (MB)
	Total:                                     0.014 (MW) /      0.113 (MB)

	Nuclear Rep. energy          =     15.36320934203226
	SCF energy                   =    -75.40144922261884
	One-electron energy          =   -131.11185185068675
	Two-electron energy          =     40.34719328603574
	Reference energy             =    -75.40144922261874

*** tstop() called on na14 at Fri Jun  6 15:50:13 2025
Module time:
	user time   =       0.07 seconds =       0.00 minutes
	system time =       0.08 seconds =       0.00 minutes
	total time  =          0 seconds =       0.00 minutes
Total time:
	user time   =      35.23 seconds =       0.59 minutes
	system time =       0.64 seconds =       0.01 minutes
	total time  =          2 seconds =       0.03 minutes
            **************************
            *                        *
            *        CCENERGY        *
            *                        *
            **************************

    Nuclear Rep. energy (wfn)     =   15.363209342032258
    SCF energy          (wfn)     =  -75.401449222618837
    Reference energy    (file100) =  -75.401449222618737

    Input parameters:
    -----------------
    Wave function   =     CCSD_T
    Reference wfn   =     RHF
    Brueckner       =     No
    Memory (Mbytes) =     100000.0
    Maxiter         =     50
    R_Convergence   =     1.0e-07
    E_Convergence   =     1.0e-06
    Restart         =     Yes
    DIIS            =     Yes
    AO Basis        =     NONE
    ABCD            =     NEW
    Cache Level     =     2
    Cache Type      =     LOW
    Print Level     =     1
    Num. of threads =     40
    # Amps to Print =     10
    Print MP2 Amps? =     No
    Analyze T2 Amps =     No
    Print Pair Ener =     No
    Local CC        =     No
    SCS-MP2         =     False
    SCSN-MP2        =     False
    SCS-CCSD        =     False

MP2 correlation energy -0.3784380338906880
                Solving CC Amplitude Equations
                ------------------------------
  Iter             Energy              RMS        T1Diag      D1Diag    New D1Diag    D2Diag
  ----     ---------------------    ---------   ----------  ----------  ----------   --------
     0        -0.378438033890688    0.000e+00    0.000000    0.000000    0.000000    0.266449
     1        -0.325126848134718    1.274e-01    0.023614    0.050491    0.050491    0.249301
     2        -0.353195759768633    9.036e-02    0.021460    0.049571    0.049571    0.289617
     3        -0.366649891893256    4.119e-02    0.028802    0.074247    0.074247    0.346064
     4        -0.371228386510408    1.483e-02    0.031071    0.083730    0.083730    0.373812
     5        -0.371231528575199    2.464e-03    0.031390    0.085344    0.085344    0.375596
     6        -0.371146969980116    8.711e-04    0.031480    0.085765    0.085765    0.375745
     7        -0.371285815917261    5.560e-04    0.031541    0.086011    0.086011    0.376216
     8        -0.371266181082020    2.558e-04    0.031536    0.085996    0.085996    0.376104
     9        -0.371275619992911    7.666e-05    0.031543    0.086017    0.086017    0.376191
    10        -0.371278470587403    2.338e-05    0.031541    0.086007    0.086007    0.376191
    11        -0.371278095543955    7.450e-06    0.031540    0.086003    0.086003    0.376190
    12        -0.371277823863650    1.356e-06    0.031540    0.086002    0.086002    0.376189
    13        -0.371277936028626    5.013e-07    0.031540    0.086002    0.086002    0.376190
    14        -0.371277922613375    1.029e-07    0.031540    0.086002    0.086002    0.376190
    15        -0.371277922248335    2.875e-08    0.031540    0.086002    0.086002    0.376190

    Iterations converged.


    Largest TIA Amplitudes:
              1   0        -0.0846102620
              3  32         0.0338244680
              3  33         0.0329286688
              4  43         0.0241047763
              5  49         0.0241047763
              4  42         0.0165383991
              5  48         0.0165383991
              3  35        -0.0148385688
              1   1        -0.0134801112
              3  31         0.0095954639

    Largest TIjAb Amplitudes:
      3   3   0   0        -0.2904442478
      4   4  21  21        -0.0890414004
      5   5  14  14        -0.0890414004
      3   5   0  14         0.0855205416
      5   3  14   0         0.0855205416
      3   4   0  21         0.0855205416
      4   3  21   0         0.0855205416
      4   4   0   0        -0.0790735841
      5   5   0   0        -0.0790735841
      3   5  14   0         0.0708912001

    SCF energy       (wfn)                    =  -75.401449222618837
    Reference energy (file100)                =  -75.401449222618737

    Opposite-spin MP2 correlation energy      =   -0.287300447452436
    Same-spin MP2 correlation energy          =   -0.091137586438252
    Singles MP2 correlation energy            =   -0.000000000000000
    MP2 correlation energy                    =   -0.378438033890688
      * MP2 total energy                      =  -75.779887256509426

    Opposite-spin CCSD correlation energy     =   -0.314817592520431
    Same-spin CCSD correlation energy         =   -0.056460329727904
    Singles CCSD correlation energy           =    0.000000000000000
    CCSD correlation energy                   =   -0.371277922248335
      * CCSD total energy                     =  -75.772727144867076

            **************************
            *                        *
            *        CCTRIPLES       *
            *                        *
            **************************


    Wave function   =    CCSD_T
    Reference wfn   =      RHF

    Nuclear Rep. energy (wfn)                =   15.363209342032258
    SCF energy          (wfn)                =  -75.401449222618837
    Reference energy    (file100)            =  -75.401449222618737
    CCSD energy         (file100)            =   -0.371277922248335
    Total CCSD energy   (file100)            =  -75.772727144867076

    Number of ijk index combinations:               56
    Memory available in words               :     12500000000
    Approx. words needed per explicit thread:            5324
    Number of threads for explicit ijk threading:   40

    (T) energy                                =   -0.034325072107344
      * CCSD(T) total energy                  =  -75.807052216974412


    Psi4 stopped on: Friday, 06 June 2025 03:50PM
    Psi4 wall time for execution: 0:00:03.47

*** Psi4 exiting successfully. Buy a developer a beer!
